!   File created by MacMolPlt 7.7
 $CONTRL SCFTYP=RHF RUNTYP=OPTIMIZE MAXIT=30 MULT=1 $END
 $SYSTEM TIMLIM=525600 MEMORY=100000000 $END
 $BASIS GBASIS=N21 NGAUSS=3 $END
 $SCF DIRSCF=.TRUE. $END
 $STATPT OPTTOL=0.0001 NSTEP=20 $END
 $DATA 
Title
CS

C     6.0     1.26265     0.16340     0.00000
H     1.0     1.21070     1.24247     0.00000
H     1.0     1.80556    -0.17743    -0.87611
C     6.0    -0.12732    -0.41860     0.00000
H     1.0    -0.15726    -1.50483     0.00000
O     8.0    -1.14665     0.23052     0.00000
 $END
