!   File created by MacMolPlt 7.7
 $CONTRL SCFTYP=RHF RUNTYP=OPTIMIZE MAXIT=30 MULT=1 $END
 $SYSTEM TIMLIM=525600 MEMORY=100000000 $END
 $BASIS GBASIS=N21 NGAUSS=3 $END
 $SCF DIRSCF=.TRUE. $END
 $STATPT OPTTOL=0.0001 NSTEP=20 $END
 $DATA 
Title
CS

 C           6.0   2.0403736666   1.0037363364   0.0000000000
 H           1.0   1.9044446728   1.6272929164  -0.8744942327
 H           1.0   3.0264520260   0.5677762773   0.0000000000
 C           6.0   1.0049041748  -0.0834912882   0.0000000000
 O           8.0   1.2015818319  -1.2709662090   0.0000000000
 O           8.0  -0.2399707203   0.4453600469   0.0000000000
 C           6.0  -1.3820059190  -0.4632405078   0.0000000000
 C           6.0  -2.6196204728   0.4221335047   0.0000000000
 H           1.0  -1.3320124708  -1.0927775924  -0.8758276811
 H           1.0  -3.5168100179  -0.1855511118   0.0000000000
 H           1.0  -2.6213394867   1.0537561517   0.8783980462
 $END
