 $contrl maxit=200 icharg=0 $end
 $pcm solvnt=CHCl3 icomp=2 ief=-10 smd=.t. $end
 $contrl runtyp=energy $end
 $dft dfttyp=b3lyp DC=.t. IDCVER=4 $end
 $scf npunch=0 CONV=1e-9 dirscf=.t. fdiff=.f. $end 
 $SYSTEM MWORDS=400 $END
 $basis gbasis=dtvp extfil=.t. $end
 $DATA
Title goes here
 c1
  C  6.0   -5.26069119043741      1.00899423502814      0.78792935830295
  C  6.0   -5.21635755195176     -0.23751579587663      0.15172519121121
  C  6.0   -4.15861204844603      1.84795712767482      0.76438098505102
  C  6.0   -2.99191998930517      1.46386952463672      0.10799926986394
  C  6.0   -2.94548996561873      0.22859219673981     -0.52274249844736
  C  6.0   -4.04693981736854     -0.62161177373082     -0.50487005199302
  H  1.0   -2.04514361395137     -0.08472572999299     -1.03651861969742
  H  1.0   -3.98219048984844     -1.57721290947372     -1.00391464065600
  H  1.0   -4.21133832071522      2.80867938981257      1.26104105747650
  H  1.0   -6.16464956449894      1.31667490579568      1.29932966801572
  S 16.0   -6.68023927692782     -1.22260440095081      0.24553957954292
  C  6.0   -6.25683081804420     -2.69956487756854     -0.70597599709658
  H  1.0   -5.42723899012171     -3.24261022717982     -0.25437020110936
  H  1.0   -6.02586492013507     -2.45284486079534     -1.74181311822235
  H  1.0   -7.14608969168651     -3.32766064947065     -0.68136627664397
  H  1.0   -2.13221375094287      2.12058384535164      0.09027629440183
 $end
