 $contrl maxit=200 icharg=0 $end
 $pcm solvnt=CHCl3 icomp=2 ief=-10 smd=.t. $end
 $contrl runtyp=energy $end
 $dft dfttyp=b3lyp DC=.t. IDCVER=4 $end
 $scf npunch=0 CONV=1e-9 dirscf=.t. fdiff=.f. $end 
 $SYSTEM MWORDS=400 $END
 $basis gbasis=dtvp extfil=.t. $end
 $DATA
Title goes here
 c1
  C  6.0   -5.75196900133176      1.02771611376695      0.14487043290814
  C  6.0   -5.64934411223761     -0.36314598993554      0.04004705062617
  C  6.0   -4.60050624163696      1.82103166245857      0.11184974476856
  C  6.0   -3.35773662933255      1.22179707608940     -0.02527224005861
  C  6.0   -3.25616827695559     -0.16159698468795     -0.12947565939835
  C  6.0   -4.40099973863131     -0.95105631891561     -0.09661404780140
  H  1.0   -2.28396005907469     -0.62491601922151     -0.23670590904920
  H  1.0   -4.32149726753366     -2.02707154062676     -0.17788758281357
  H  1.0   -4.69103140079123      2.89543125136612      0.19402754616582
  C  6.0   -7.03555562628192      1.64041605518573      0.28693288294785
  H  1.0   -6.54555051694784     -0.96764662352714      0.06649625043371
  N  7.0   -8.07001248685827      2.13533789201840      0.40146518838890
  H  1.0   -2.46684864238658      1.83528342602932     -0.05081365711803
 $end
