 $contrl maxit=200 icharg=0 $end
 $pcm solvnt=CHCl3 icomp=2 ief=-10 smd=.t. $end
 $contrl runtyp=energy $end
 $dft dfttyp=b3lyp DC=.t. IDCVER=4 $end
 $scf npunch=0 CONV=1e-9 dirscf=.t. fdiff=.f. $end 
 $SYSTEM MWORDS=400 $END
 $basis gbasis=dtvp extfil=.t. $end
 $DATA
Title goes here
 c1
  C  6.0   -5.54809990821939      1.10231002751509      0.15235540167369
  C  6.0   -5.39602424904275     -0.22972142124954     -0.23983223466171
  C  6.0   -4.43450551503257      1.90538188223968      0.36373485923348
  C  6.0   -3.15855552798467      1.38489964766688      0.18407680597052
  C  6.0   -2.99723390202135      0.05834323221140     -0.20863393964490
  C  6.0   -4.10784302429752     -0.74259053077501     -0.41838767459617
  H  1.0   -2.00353865864357     -0.34714045952977     -0.34991229554231
  H  1.0   -4.00530189594208     -1.77533625216309     -0.72239751418847
  H  1.0   -4.56278272481831      2.93608848583703      0.66839175243738
  H  1.0   -6.53522163334680      1.51961186104229      0.29579338356505
  C  6.0   -6.56411266161300     -1.13475251466573     -0.47571040358566
  C  6.0   -7.96008731843196     -0.58069017160446     -0.28873634749345
  O  8.0   -6.39766308063852     -2.29056490673553     -0.80893280562051
  H  1.0   -8.13346021877664      0.26945373806218     -0.95225261781601
  H  1.0   -8.10375411302134     -0.22952691253088      0.73568674381243
  H  1.0   -8.68026335969433     -1.36506828923452     -0.50733260968846
  H  1.0   -2.29078220847515      2.01089258391398      0.34954949614510
 $end
