 $contrl maxit=200 icharg=0 $end
 $pcm solvnt=CHCl3 icomp=2 ief=-10 smd=.t. $end
 $contrl runtyp=energy $end
 $dft dfttyp=b3lyp DC=.t. IDCVER=4 $end
 $scf npunch=0 CONV=1e-9 dirscf=.t. fdiff=.f. $end 
 $SYSTEM MWORDS=400 $END
 $basis gbasis=dtvp extfil=.t. $end
 $DATA
Title goes here
 c1
  C  6.0   -5.89523012160328      0.86584772275967     -0.00017855809002
  C  6.0   -5.72038424608585     -0.51398560249872     -0.00033984557429
  C  6.0   -4.78764132537501      1.70707069233703      0.00035259630815
  C  6.0   -3.50546736766205      1.16807811814273      0.00072307457484
  C  6.0   -3.33052248365781     -0.21162327813984      0.00056197995142
  C  6.0   -4.43817283359591     -1.05285880065889      0.00003081891319
  H  1.0   -2.33229278718463     -0.63102557737360      0.00085111660296
  H  1.0   -4.30235983195012     -2.12708039253972     -0.00009352716130
  H  1.0   -4.92335463379953      2.78129608288079      0.00047677719820
  H  1.0   -6.89356740380072      1.28501350882228     -0.00046703373403
  H  1.0   -6.58283935164214     -1.16863970666176     -0.00075259165452
  H  1.0   -2.64310761364296      1.82295723293003      0.00113519266539
 $end
