 $contrl maxit=200 icharg=0 $end
 $pcm solvnt=CHCl3 icomp=2 ief=-10 smd=.t. $end
 $contrl runtyp=energy $end
 $dft dfttyp=b3lyp DC=.t. IDCVER=4 $end
 $scf npunch=0 CONV=1e-9 dirscf=.t. fdiff=.f. $end 
 $SYSTEM MWORDS=400 $END
 $basis gbasis=dtvp extfil=.t. $end
 $DATA
Title goes here
 c1
  C  6.0   -5.53355554328908      1.14413054894344      0.26081228428383
  C  6.0   -5.39982894465011     -0.19727707268961     -0.08467515217593
  C  6.0   -4.40812520556707      1.95517051262914      0.31908722390677
  C  6.0   -3.15307990451662      1.42827646313829      0.03570747818045
  C  6.0   -3.02321738759146      0.08767199226337     -0.30862189150594
  C  6.0   -4.14540215481743     -0.72818168599423     -0.36848079083279
  H  1.0   -2.04809292191145     -0.32436958436385     -0.53297707052589
  H  1.0   -4.04927435482082     -1.77031909268754     -0.63977887836007
  H  1.0   -4.51230548965130      2.99920801379774      0.58378619825735
  H  1.0   -6.51198376499443      1.55090344737064      0.47594422210867
  C  6.0   -6.61061002751270     -1.08837220222047     -0.09694206517372
  F  9.0   -6.47988015785942     -2.11738240416687     -0.95849457166065
  F  9.0   -7.73238268848967     -0.42122628515633     -0.43898153697102
  F  9.0   -6.84138961059394     -1.63184703781432      1.12198250307950
  H  1.0   -2.27709184373444      2.06258438695059      0.08107204738944
 $end
