 $contrl maxit=200 icharg=0 $end
 $pcm solvnt=CHCl3 icomp=2 ief=-10 smd=.t. $end
 $contrl runtyp=energy $end
 $dft dfttyp=b3lyp DC=.t. IDCVER=4 $end
 $scf npunch=0 CONV=1e-9 dirscf=.t. fdiff=.f. $end 
 $SYSTEM MWORDS=400 $END
 $basis gbasis=dtvp extfil=.t. $end
 $DATA
Title goes here
 c1
  C  6.0   -5.48327407864964      1.04454759324577      0.44603444972009
  C  6.0   -5.31376976914101     -0.28872117537218      0.06889931500768
  C  6.0   -4.39734705325499      1.90930608003506      0.44198985253188
  C  6.0   -3.14065832980038      1.44967829001310      0.06234518288085
  C  6.0   -2.96880279815983      0.12097855963765     -0.31414655236016
  C  6.0   -4.05098073196205     -0.74608184803593     -0.31060241472775
  H  1.0   -1.99123253531935     -0.23729850743610     -0.60995082538313
  H  1.0   -3.94024785565313     -1.78225423977559     -0.59911685228432
  H  1.0   -4.53093308369053      2.94272457462598      0.73479973894139
  H  1.0   -6.46198953904241      1.39530729787118      0.73923410882560
  C  6.0   -6.44013956040567     -1.26009142984954      0.05231938500658
  O  8.0   -7.61076237675625     -0.70083348682075      0.42118731264637
  O  8.0   -6.33544998890900     -2.42343620876012     -0.25582833959221
  C  6.0   -8.74489195123895     -1.57858740250258      0.42132282771409
  H  1.0   -8.91889399310608     -1.97608790159952     -0.57822890033514
  H  1.0   -9.58512014595495     -0.96958095562703      0.74345054873734
  H  1.0   -8.58500032212440     -2.40857013901723      1.10891699368110
  H  1.0   -2.29553588683137      2.12621089936780      0.06000416898975
 $end
