 $contrl maxit=200 icharg=0 $end
 $pcm solvnt=CHCl3 icomp=2 ief=-10 smd=.t. $end
 $contrl runtyp=energy $end
 $dft dfttyp=b3lyp DC=.t. IDCVER=4 $end
 $scf npunch=0 CONV=1e-9 dirscf=.t. fdiff=.f. $end 
 $SYSTEM MWORDS=400 $END
 $basis gbasis=dtvp extfil=.t. $end
 $DATA
Title goes here
 c1
  C  6.0   -5.77309552526274      1.01156771473259     -0.09775668439870
  C  6.0   -5.66539657325776     -0.36757172129550     -0.12659346845294
  C  6.0   -4.66659716279211      1.84067760732273     -0.04317486621066
  C  6.0   -3.40383663872657      1.25827150798678     -0.01677318536813
  C  6.0   -3.26473716223771     -0.12525793181686     -0.04481641579392
  C  6.0   -4.39538307641027     -0.93340265488491     -0.09951696959636
  H  1.0   -2.27959883730009     -0.57195817835733     -0.02395735402662
  H  1.0   -4.29232426980367     -2.01059457149069     -0.12148429349403
  H  1.0   -4.80000693716354      2.91365950804338     -0.02315742396632
  F  9.0   -7.00433050104904      1.56834741299247     -0.12512219275863
  H  1.0   -6.55993770910056     -0.97371564153272     -0.16971845592014
  H  1.0   -2.52701560689594      1.89125694830006      0.02555130998645
 $end
