 $contrl maxit=200 icharg=0 $end
 $pcm solvnt=CHCl3 icomp=2 ief=-10 smd=.t. $end
 $contrl runtyp=energy $end
 $dft dfttyp=b3lyp DC=.t. IDCVER=4 $end
 $scf npunch=0 CONV=1e-9 dirscf=.t. fdiff=.f. $end 
 $SYSTEM MWORDS=400 $END
 $basis gbasis=dtvp extfil=.t. $end
 $DATA
Title goes here
 c1
  C  6.0   -5.73064935658380      0.89183677124842     -0.01020945497347
  C  6.0   -5.52794415248009     -0.48863840312159     -0.00911254355275
  C  6.0   -4.61002524907027      1.72297144171216     -0.00764285506292
  C  6.0   -3.32535626278306      1.19283842017055      0.00165554759759
  C  6.0   -3.13792644319930     -0.18455901836283      0.00670371136345
  C  6.0   -4.24554216561010     -1.02440710104726      0.00023550232369
  H  1.0   -2.13810371107167     -0.59942701758171      0.01122942847972
  H  1.0   -4.11176489760981     -2.09903855963961     -0.00137535483868
  H  1.0   -4.74621593116812      2.79832441441779     -0.01561980134946
  C  6.0   -7.12063041739236      1.46911474419852      0.01334158065032
  H  1.0   -6.38558210352955     -1.15151049731132     -0.01830904167340
  H  1.0   -7.83277100576280      0.81132385487641     -0.48695524027315
  H  1.0   -7.15421126262103      2.44353968586923     -0.47588921467261
  H  1.0   -7.46897876156812      1.60682752556301      1.04121057073132
  H  1.0   -2.46957827954993      1.85641373900822      0.00108716525036
 $end
