 $contrl maxit=200 icharg=0 $end
 $pcm solvnt=CHCl3 icomp=2 ief=-10 smd=.t. $end
 $contrl runtyp=energy $end
 $dft dfttyp=b3lyp DC=.t. IDCVER=4 $end
 $scf npunch=0 CONV=1e-9 dirscf=.t. fdiff=.f. $end 
 $SYSTEM MWORDS=400 $END
 $basis gbasis=dtvp extfil=.t. $end
 $DATA
Title goes here
 c1
  C  6.0   -5.45745562572114      1.13084564227637      0.19695537385397
  C  6.0   -5.28474785263447     -0.18710371403217     -0.22523401307256
  C  6.0   -4.36312329830644      1.97803937277729      0.30974704196406
  C  6.0   -3.09262883901853      1.50542086110124      0.00065564540763
  C  6.0   -2.91434254958912      0.18813059427180     -0.42139537198083
  C  6.0   -4.00536567258570     -0.65681610486174     -0.53488970420640
  H  1.0   -1.92236425750443     -0.17315814680191     -0.66017100853264
  H  1.0   -3.89235575916170     -1.68263829948957     -0.86011202862258
  H  1.0   -4.49828878754299      3.00087747497340      0.63627435925991
  H  1.0   -6.45286458600386      1.48808199192386      0.43539389710108
  C  6.0   -6.46120146093146     -1.07174817073088     -0.34081932072069
  O  8.0   -6.42904398843326     -2.22359813863424     -0.70398130398819
  H  1.0   -7.42389156000772     -0.59423914027091     -0.06143450349807
  H  1.0   -2.23734576255915      2.16345577749746      0.08831093703533
 $end
