 $contrl maxit=200 icharg=0 $end
 $pcm solvnt=CHCl3 icomp=2 ief=-10 smd=.t. $end
 $contrl runtyp=energy $end
 $dft dfttyp=b3lyp DC=.t. IDCVER=4 $end
 $scf npunch=0 CONV=1e-9 dirscf=.t. fdiff=.f. $end 
 $SYSTEM MWORDS=400 $END
 $basis gbasis=dtvp extfil=.t. $end
 $DATA
Title goes here
 c1
  C  6.0   -5.64383282688845      1.13860037524010      0.27393673752491
  C  6.0   -5.54253724888542     -0.20811093625600     -0.07918952977419
  C  6.0   -4.50253105435606      1.92663945324203      0.32840033044593
  C  6.0   -3.26004567374401      1.37587048483652      0.03286171528189
  C  6.0   -3.15674992654251      0.03327481929101     -0.31933922421590
  C  6.0   -4.29403527408019     -0.75737445673766     -0.37549390567814
  H  1.0   -2.18986283858063     -0.39503150700315     -0.54946736656727
  H  1.0   -4.23759310186095     -1.80261215145230     -0.64657783654146
  H  1.0   -4.58191902132232      2.97095467093954      0.60115501553806
  H  1.0   -6.61201676008561      1.56000854140609      0.50228927190329
  C  6.0   -6.72947378378070     -1.09456034716031     -0.15445923915366
  O  8.0   -7.88722098363712     -0.46170938020914      0.15784973471137
  O  8.0   -6.70290787341710     -2.26212212911318     -0.45905273237516
  H  1.0   -8.59079703813391     -1.12354307015551      0.07665062481895
  H  1.0   -2.37150659468498      1.99292563313193      0.07680640408137
 $end
