!   File created by MacMolPlt 7.7
 $CONTRL SCFTYP=RHF RUNTYP=OPTIMIZE MAXIT=30 MULT=1 $END
 $SYSTEM TIMLIM=525600 MEMORY=100000000 $END
 $BASIS GBASIS=N21 NGAUSS=3 $END
 $SCF DIRSCF=.TRUE. $END
 $STATPT OPTTOL=0.0001 NSTEP=20 $END
 $DATA 
Title
CS

C     6.0     1.45394     0.00623     0.00000
H     1.0     1.76988     0.56112    -0.87425
H     1.0     1.89591    -0.97683     0.00000
C     6.0    -0.03898    -0.11131     0.00000
O     8.0    -0.69266    -1.11951     0.00000
O     8.0    -0.61282     1.12180     0.00000
H     1.0    -1.58001     1.06783     0.00000
 $END
