!   File created by MacMolPlt 7.7
 $CONTRL SCFTYP=RHF RUNTYP=OPTIMIZE MAXIT=30 MULT=1 $END
 $SYSTEM TIMLIM=525600 MEMORY=100000000 $END
 $BASIS GBASIS=N21 NGAUSS=3 $END
 $SCF DIRSCF=.TRUE. $END
 $STATPT OPTTOL=0.0001 NSTEP=20 $END
 $DATA 
Title
CS

C     6.0     1.44310     0.15688     0.00000
H     1.0     1.73140     0.72117    -0.87983
H     1.0     1.95043    -0.79473     0.00000
N     7.0    -0.79707     1.05013     0.00000
H     1.0    -1.79149     0.97345     0.00000
H     1.0    -0.38902     1.95701     0.00000
C     6.0    -0.05320    -0.08772     0.00000
O     8.0    -0.54943    -1.19730     0.00000
 $END
