!   File created by MacMolPlt 7.7
 $CONTRL SCFTYP=RHF RUNTYP=OPTIMIZE MAXIT=30 MULT=1 $END
 $SYSTEM TIMLIM=525600 MEMORY=100000000 $END
 $BASIS GBASIS=N21 NGAUSS=3 $END
 $SCF DIRSCF=.TRUE. $END
 $STATPT OPTTOL=0.0001 NSTEP=20 $END
 $DATA 
Title
CNV 2

 C           6.0   0.0000000000   0.0000000000  -0.0516936181
 O           8.0  -0.0000000000   0.0000000000  -1.2626595900
 C           6.0  -1.2780115648  -0.0000000000   0.7618216237
 H           1.0  -2.1317044572   0.0000000000   0.0999297348
 H           1.0  -1.3140594712   0.8765215056   1.4004376228
 $END
