!   File created by MacMolPlt 7.7
 $CONTRL SCFTYP=RHF RUNTYP=OPTIMIZE MAXIT=30 MULT=1 $END
 $SYSTEM TIMLIM=525600 MEMORY=100000000 $END
 $BASIS GBASIS=N21 NGAUSS=3 $END
 $SCF DIRSCF=.TRUE. $END
 $STATPT OPTTOL=0.0001 NSTEP=20 $END
 $DATA
Title
CS

 C           6.0   1.2804891688   0.2459533135   0.0000000000
 H           1.0   1.3214272186   1.3260504001   0.0000000000
 H           1.0   1.7751781177  -0.1498990420  -0.8765112333
 C           6.0  -0.1473205934  -0.1918317120   0.0000000000
 CL         17.0  -0.1927728217  -2.1221931113   0.0000000000
 O           8.0  -1.1589392076   0.3999191936   0.0000000000
 $END
