!   File created by MacMolPlt 7.7
 $CONTRL SCFTYP=RHF RUNTYP=OPTIMIZE MAXIT=30 MULT=1 $END
 $SYSTEM TIMLIM=525600 MEMORY=100000000 $END
 $BASIS GBASIS=N21 NGAUSS=3 $END
 $SCF DIRSCF=.TRUE. $END
 $STATPT OPTTOL=0.0001 NSTEP=20 $END
 $DATA 
Title
CS

 C           6.0  -2.1143126710  -0.8734442739   0.0000000000
 H           1.0  -1.9839013616  -1.4980366703  -0.8746218077
 H           1.0  -3.0965468120  -0.4288681129   0.0000000000
 C           6.0  -1.0695667310   0.2053659823   0.0000000000
 O           8.0  -1.2575144406   1.3946043468   0.0000000000
 O           8.0   0.1699897527  -0.3333631599   0.0000000000
 C           6.0   1.3189901172   0.5710974464   0.0000000000
 C           6.0   2.5791820391  -0.3103271486   0.0000000000
 H           1.0   2.2709533088  -1.3459123526   0.0000000000
 H           1.0   3.1865299975  -0.1309767829  -0.8778159435
 H           1.0   1.2574740826   1.2023120893  -0.8728918261
 $END
