 $CONTRL SCFTYP=RHF RUNTYP=OPTIMIZE MAXIT=100 MULT=1 $END
 $SYSTEM MWORDS=100 $END
 $BASIS GBASIS=n31 ngauss=6 ndfunc=1 npfunc=1 $END
 $SCF DIRSCF=.TRUE. $END
 $STATPT OPTTOL=0.0001 NSTEP=200 $END
 $DATA 
Title
DNH 2

C     6.0     0.00000     0.00000    -0.66300
H     1.0     0.00000     0.92400    -1.25660
 $END
