 $contrl nprint=7 $end
 $contrl PLTORB=.t. MOLPLT=.t. $end
 $pdc ptsel=chelpg constr=charge $end
 $elpot iepot=1 where=pdc $end
 $guess guess=moread norb=14 $end
 $CONTRL SCFTYP=RHF RUNTYP=energy MAXIT=30 MULT=1 ISPHER=1 $END
 $SYSTEM mwords=100 $END
 $BASIS GBASIS=n31 ngauss=6 ndfunc=2 nffunc=1 $END
 $SCF DIRSCF=.TRUE. $END
 $STATPT OPTTOL=0.0001 NSTEP=20 $END
 $DATA 
Title
C1
 NA         11.0   0.0000000000  -1.4993243524   0.0000000000
 CL         17.0   0.0000000000   0.8916843524   0.0000000000
 $END
--- CLOSED SHELL ORBITALS --- GENERATED AT 20:30:25 29-SEP-2025    
Title                                                                           
E(RHF)=     -621.4017146528, E(NUC)=   41.3867776429,    9 ITERS
 $VEC   
 1  1-4.51134767E-06-2.30857336E-04 0.00000000E+00-1.83769406E-06 0.00000000E+00
 1  2-2.68946673E-03 0.00000000E+00-3.26045281E-03 0.00000000E+00-5.50795853E-05
 1  3 0.00000000E+00-1.56554298E-05 0.00000000E+00 1.40540557E-04-2.81081113E-04
 1  4 1.40540557E-04 0.00000000E+00 0.00000000E+00 0.00000000E+00 9.44725467E-04
 1  5-1.88945093E-03 9.44725467E-04 0.00000000E+00 0.00000000E+00 0.00000000E+00
 1  6 0.00000000E+00-6.38305661E-04 0.00000000E+00 4.28188454E-04 0.00000000E+00
 1  7 0.00000000E+00 0.00000000E+00 0.00000000E+00 4.28188454E-04 0.00000000E+00
 1  8 9.96503078E-01 1.25093472E-02 0.00000000E+00-5.03535369E-05 0.00000000E+00
 1  9-5.17470101E-03 0.00000000E+00 2.54022817E-04 0.00000000E+00 7.02534337E-03
 1 10 0.00000000E+00-2.52604387E-03 0.00000000E+00 6.93017529E-05-1.38603506E-04
 1 11 6.93017529E-05 0.00000000E+00 0.00000000E+00 0.00000000E+00-2.57295938E-04
 1 12 5.14591876E-04-2.57295938E-04 0.00000000E+00 0.00000000E+00 0.00000000E+00
 1 13 0.00000000E+00-6.17778029E-05 0.00000000E+00 4.14418100E-05 0.00000000E+00
 1 14 0.00000000E+00 0.00000000E+00 0.00000000E+00 4.14418100E-05 0.00000000E+00
 2  1 9.97901640E-01 8.83338377E-03 0.00000000E+00-2.04544198E-05 0.00000000E+00
 2  2-2.27259163E-03 0.00000000E+00-1.08467570E-03 0.00000000E+00 5.15143120E-04
 2  3 0.00000000E+00-9.58522413E-05 0.00000000E+00-1.24370917E-05 2.48741834E-05
 2  4-1.24370917E-05 0.00000000E+00 0.00000000E+00 0.00000000E+00 4.59084232E-04
 2  5-9.18168463E-04 4.59084232E-04 0.00000000E+00 0.00000000E+00 0.00000000E+00
 2  6 0.00000000E+00-5.03782703E-04 0.00000000E+00 3.37947711E-04 0.00000000E+00
 2  7 0.00000000E+00 0.00000000E+00 0.00000000E+00 3.37947711E-04 0.00000000E+00
 2  8-2.53570819E-06-4.43117061E-05 0.00000000E+00 6.41630340E-05 0.00000000E+00
 2  9-2.08651336E-04 0.00000000E+00-3.05783587E-04 0.00000000E+00 1.86102009E-03
 2 10 0.00000000E+00-4.77126158E-04 0.00000000E+00-2.26678912E-05 4.53357824E-05
 2 11-2.26678912E-05 0.00000000E+00 0.00000000E+00 0.00000000E+00 6.98593086E-06
 2 12-1.39718617E-05 6.98593086E-06 0.00000000E+00 0.00000000E+00 0.00000000E+00
 2 13 0.00000000E+00 3.77501272E-05 0.00000000E+00-2.53235551E-05 0.00000000E+00
 2 14 0.00000000E+00 0.00000000E+00 0.00000000E+00-2.53235551E-05 0.00000000E+00
 3  1 1.23693303E-05 5.54207818E-04-0.00000000E+00-3.69843857E-06-0.00000000E+00
 3  2 6.42934168E-03-0.00000000E+00 7.81035130E-03-0.00000000E+00 2.97938286E-04
 3  3-0.00000000E+00 1.78418805E-04-0.00000000E+00-2.65075415E-04 5.30150830E-04
 3  4-2.65075415E-04-0.00000000E+00-0.00000000E+00-0.00000000E+00-2.29420094E-03
 3  5 4.58840188E-03-2.29420094E-03-0.00000000E+00-0.00000000E+00-0.00000000E+00
 3  6-0.00000000E+00 1.45961361E-03-0.00000000E+00-9.79138573E-04-0.00000000E+00
 3  7-0.00000000E+00-0.00000000E+00-0.00000000E+00-9.79138573E-04-0.00000000E+00
 3  8-2.86761401E-01 1.03135411E+00-0.00000000E+00-8.43186670E-04-0.00000000E+00
 3  9 2.55866163E-02-0.00000000E+00-8.28994979E-04-0.00000000E+00-1.82178567E-02
 3 10-0.00000000E+00 6.07718022E-03-0.00000000E+00-1.65033119E-04 3.30066238E-04
 3 11-1.65033119E-04-0.00000000E+00-0.00000000E+00-0.00000000E+00 5.67336498E-04
 3 12-1.13467300E-03 5.67336498E-04-0.00000000E+00-0.00000000E+00-0.00000000E+00
 3 13-0.00000000E+00 1.07749975E-04-0.00000000E+00-7.22808805E-05-0.00000000E+00
 3 14-0.00000000E+00-0.00000000E+00-0.00000000E+00-7.22808805E-05-0.00000000E+00
 4  1 4.29537323E-05-5.04484057E-04 0.00000000E+00-2.25148268E-04 0.00000000E+00
 4  2-8.62510099E-04 0.00000000E+00 1.65291204E-04 0.00000000E+00 8.77840794E-04
 4  3 0.00000000E+00 6.73951006E-04 0.00000000E+00-2.10111513E-04 4.20223026E-04
 4  4-2.10111513E-04 0.00000000E+00 0.00000000E+00 0.00000000E+00-5.62330162E-04
 4  5 1.12466032E-03-5.62330162E-04 0.00000000E+00 0.00000000E+00 0.00000000E+00
 4  6 0.00000000E+00 1.43376578E-03 0.00000000E+00-9.61799321E-04 0.00000000E+00
 4  7 0.00000000E+00 0.00000000E+00 0.00000000E+00-9.61799321E-04 0.00000000E+00
 4  8-3.22921900E-04 1.17838241E-03 0.00000000E+00 9.93225050E-01 0.00000000E+00
 4  9-7.40200772E-04 0.00000000E+00 2.16976460E-02 0.00000000E+00-1.05511280E-03
 4 10 0.00000000E+00-5.15529578E-03 0.00000000E+00 8.65800917E-05-1.73160183E-04
 4 11 8.65800917E-05 0.00000000E+00 0.00000000E+00 0.00000000E+00 5.32120216E-05
 4 12-1.06424043E-04 5.32120216E-05 0.00000000E+00 0.00000000E+00 0.00000000E+00
 4 13 0.00000000E+00 1.17582881E-04 0.00000000E+00-7.88769944E-05 0.00000000E+00
 4 14 0.00000000E+00 0.00000000E+00 0.00000000E+00-7.88769944E-05 0.00000000E+00
 5  1 0.00000000E+00 0.00000000E+00-2.48383870E-07 0.00000000E+00 7.47253643E-07
 5  2 0.00000000E+00-1.83272276E-04 0.00000000E+00 5.51363240E-04 0.00000000E+00
 5  3-1.57413281E-04 0.00000000E+00 4.73568159E-04 0.00000000E+00 0.00000000E+00
 5  4 0.00000000E+00 3.82905182E-05 0.00000000E+00-1.15194681E-04 0.00000000E+00
 5  5 0.00000000E+00 0.00000000E+00-3.55192856E-04 0.00000000E+00 1.06857575E-03
 5  6 4.46417726E-05 0.00000000E+00-1.34302000E-04 0.00000000E+00-6.00616803E-05
 5  7-7.98576306E-05 2.40246721E-04 1.99644077E-05 0.00000000E+00 0.00000000E+00
 5  8 0.00000000E+00 0.00000000E+00-3.13342737E-01 0.00000000E+00 9.42672257E-01
 5  9 0.00000000E+00-6.63708514E-03 0.00000000E+00 1.99672604E-02 0.00000000E+00
 5 10 1.82184900E-03 0.00000000E+00-5.48092006E-03 0.00000000E+00 0.00000000E+00
 5 11 0.00000000E+00 7.32548210E-05 0.00000000E+00-2.20382637E-04 0.00000000E+00
 5 12 0.00000000E+00 0.00000000E+00-1.24510441E-04 0.00000000E+00 3.74581924E-04
 5 13-2.36070053E-06 0.00000000E+00 7.10202449E-06 0.00000000E+00 3.17612191E-06
 5 14 4.22294949E-06-1.27044876E-05-1.05573737E-06 0.00000000E+00 0.00000000E+00
 6  1-0.00000000E+00-0.00000000E+00 7.47253641E-07-0.00000000E+00 2.48383871E-07
 6  2-0.00000000E+00 5.51363240E-04-0.00000000E+00 1.83272276E-04-0.00000000E+00
 6  3 4.73568159E-04-0.00000000E+00 1.57413281E-04-0.00000000E+00-0.00000000E+00
 6  4-0.00000000E+00-1.15194681E-04-0.00000000E+00-3.82905182E-05-0.00000000E+00
 6  5-0.00000000E+00-0.00000000E+00 1.06857575E-03-0.00000000E+00 3.55192856E-04
 6  6-1.34302000E-04-0.00000000E+00-4.46417726E-05-0.00000000E+00-1.99644076E-05
 6  7 2.40246721E-04 7.98576306E-05-6.00616803E-05-0.00000000E+00-0.00000000E+00
 6  8-0.00000000E+00-0.00000000E+00 9.42672257E-01-0.00000000E+00 3.13342737E-01
 6  9-0.00000000E+00 1.99672604E-02-0.00000000E+00 6.63708514E-03-0.00000000E+00
 6 10-5.48092006E-03-0.00000000E+00-1.82184900E-03-0.00000000E+00-0.00000000E+00
 6 11-0.00000000E+00-2.20382637E-04-0.00000000E+00-7.32548210E-05-0.00000000E+00
 6 12-0.00000000E+00-0.00000000E+00 3.74581924E-04-0.00000000E+00 1.24510441E-04
 6 13 7.10202450E-06-0.00000000E+00 2.36070053E-06-0.00000000E+00 1.05573737E-06
 6 14-1.27044876E-05-4.22294949E-06 3.17612190E-06-0.00000000E+00-0.00000000E+00
 7  1-2.45842656E-01 1.02722165E+00-0.00000000E+00-1.42771924E-02-0.00000000E+00
 7  2-1.45821686E-02-0.00000000E+00-1.30522423E-02-0.00000000E+00 3.91374463E-03
 7  3-0.00000000E+00 1.13874512E-03-0.00000000E+00 5.68051209E-04-1.13610242E-03
 7  4 5.68051209E-04-0.00000000E+00-0.00000000E+00-0.00000000E+00 3.79237076E-03
 7  5-7.58474151E-03 3.79237076E-03-0.00000000E+00-0.00000000E+00-0.00000000E+00
 7  6-0.00000000E+00-3.79073969E-03-0.00000000E+00 2.54290549E-03-0.00000000E+00
 7  7-0.00000000E+00-0.00000000E+00-0.00000000E+00 2.54290549E-03-0.00000000E+00
 7  8 6.36453268E-05-9.62867118E-04-0.00000000E+00 6.23263154E-04-0.00000000E+00
 7  9-2.01247822E-03-0.00000000E+00-1.58037761E-03-0.00000000E+00 1.77539850E-02
 7 10-0.00000000E+00-8.22794328E-03-0.00000000E+00-7.37429688E-05 1.47485938E-04
 7 11-7.37429688E-05-0.00000000E+00-0.00000000E+00-0.00000000E+00-5.76388410E-04
 7 12 1.15277682E-03-5.76388410E-04-0.00000000E+00-0.00000000E+00-0.00000000E+00
 7 13-0.00000000E+00 5.54477306E-05-0.00000000E+00-3.71954685E-05-0.00000000E+00
 7 14-0.00000000E+00-0.00000000E+00-0.00000000E+00-3.71954685E-05-0.00000000E+00
 8  1-0.00000000E+00-0.00000000E+00 1.13479386E-01-0.00000000E+00 9.91855108E-01
 8  2-0.00000000E+00 1.00468155E-03-0.00000000E+00 8.78131750E-03-0.00000000E+00
 8  3-1.82786859E-04-0.00000000E+00-1.59763014E-03-0.00000000E+00-0.00000000E+00
 8  4-0.00000000E+00-7.46740201E-04-0.00000000E+00-6.52680756E-03-0.00000000E+00
 8  5-0.00000000E+00-0.00000000E+00 4.79733175E-05-0.00000000E+00 4.19306004E-04
 8  6 4.63035218E-05-0.00000000E+00 4.04710977E-04-0.00000000E+00 1.80992251E-04
 8  7-8.28302579E-05-7.23969004E-04 2.07075645E-05-0.00000000E+00-0.00000000E+00
 8  8-0.00000000E+00-0.00000000E+00-7.62934012E-05-0.00000000E+00-6.66834533E-04
 8  9-0.00000000E+00 1.74412650E-04-0.00000000E+00 1.52443522E-03-0.00000000E+00
 8 10 1.06453587E-04-0.00000000E+00 9.30447839E-04-0.00000000E+00-0.00000000E+00
 8 11-0.00000000E+00-5.00761970E-06-0.00000000E+00-4.37680828E-05-0.00000000E+00
 8 12-0.00000000E+00-0.00000000E+00-1.83065103E-04-0.00000000E+00-1.60006209E-03
 8 13-4.45531742E-05-0.00000000E+00-3.89412544E-04-0.00000000E+00-1.74150584E-04
 8 14 7.96991409E-05 6.96602336E-04-1.99247852E-05-0.00000000E+00-0.00000000E+00
 9  1 0.00000000E+00 0.00000000E+00 9.91855108E-01 0.00000000E+00-1.13479386E-01
 9  2 0.00000000E+00 8.78131750E-03 0.00000000E+00-1.00468155E-03 0.00000000E+00
 9  3-1.59763014E-03 0.00000000E+00 1.82786859E-04 0.00000000E+00 0.00000000E+00
 9  4 0.00000000E+00-6.52680756E-03 0.00000000E+00 7.46740201E-04 0.00000000E+00
 9  5 0.00000000E+00 0.00000000E+00 4.19306004E-04 0.00000000E+00-4.79733175E-05
 9  6 4.04710977E-04 0.00000000E+00-4.63035218E-05 0.00000000E+00-2.07075645E-05
 9  7-7.23969004E-04 8.28302579E-05 1.80992251E-04 0.00000000E+00 0.00000000E+00
 9  8 0.00000000E+00 0.00000000E+00-6.66834533E-04 0.00000000E+00 7.62934012E-05
 9  9 0.00000000E+00 1.52443522E-03 0.00000000E+00-1.74412650E-04 0.00000000E+00
 9 10 9.30447839E-04 0.00000000E+00-1.06453587E-04 0.00000000E+00 0.00000000E+00
 9 11 0.00000000E+00-4.37680828E-05 0.00000000E+00 5.00761970E-06 0.00000000E+00
 9 12 0.00000000E+00 0.00000000E+00-1.60006209E-03 0.00000000E+00 1.83065103E-04
 9 13-3.89412544E-04 0.00000000E+00 4.45531742E-05 0.00000000E+00 1.99247852E-05
 9 14 6.96602336E-04-7.96991409E-05-1.74150584E-04 0.00000000E+00 0.00000000E+00
10  1-3.67742182E-03 1.41054464E-02 0.00000000E+00 9.97454283E-01 0.00000000E+00
10  2-2.11211173E-02 0.00000000E+00-9.05316484E-03 0.00000000E+00 3.81149703E-03
10  3 0.00000000E+00-3.70808104E-05 0.00000000E+00 4.09023384E-03-8.18046769E-03
10  4 4.09023384E-03 0.00000000E+00 0.00000000E+00 0.00000000E+00 5.07931649E-03
10  5-1.01586330E-02 5.07931649E-03 0.00000000E+00 0.00000000E+00 0.00000000E+00
10  6 0.00000000E+00-5.84525528E-03 0.00000000E+00 3.92111645E-03 0.00000000E+00
10  7 0.00000000E+00 0.00000000E+00 0.00000000E+00 3.92111645E-03 0.00000000E+00
10  8 1.62952264E-03-8.52442087E-03 0.00000000E+00 4.66877318E-03 0.00000000E+00
10  9 1.00609235E-02 0.00000000E+00-1.17200794E-02 0.00000000E+00 3.06217067E-02
10 10 0.00000000E+00-1.39998722E-02 0.00000000E+00-4.52910243E-04 9.05820485E-04
10 11-4.52910243E-04 0.00000000E+00 0.00000000E+00 0.00000000E+00-2.28785491E-03
10 12 4.57570981E-03-2.28785491E-03 0.00000000E+00 0.00000000E+00 0.00000000E+00
10 13 0.00000000E+00-6.58190113E-04 0.00000000E+00 4.41527350E-04 0.00000000E+00
10 14 0.00000000E+00 0.00000000E+00 0.00000000E+00 4.41527350E-04 0.00000000E+00
11  1 5.18983276E-03-2.85193908E-02 0.00000000E+00-5.22178824E-02 0.00000000E+00
11  2 2.39727463E-02 0.00000000E+00 1.96299576E-02 0.00000000E+00-2.41858009E-03
11  3 0.00000000E+00-1.23463080E-03 0.00000000E+00-3.74957035E-03 7.49914069E-03
11  4-3.74957035E-03 0.00000000E+00 0.00000000E+00 0.00000000E+00-4.24101838E-03
11  5 8.48203675E-03-4.24101838E-03 0.00000000E+00 0.00000000E+00 0.00000000E+00
11  6 0.00000000E+00 6.00713398E-03 0.00000000E+00-4.02970798E-03 0.00000000E+00
11  7 0.00000000E+00 0.00000000E+00 0.00000000E+00-4.02970798E-03 0.00000000E+00
11  8 8.06142724E-02-3.73205574E-01 0.00000000E+00 6.55904674E-03 0.00000000E+00
11  9 7.12643850E-01 0.00000000E+00-1.24101690E-02 0.00000000E+00 3.66882308E-01
11 10 0.00000000E+00-1.26296296E-02 0.00000000E+00-3.91756043E-04 7.83512087E-04
11 11-3.91756043E-04 0.00000000E+00 0.00000000E+00 0.00000000E+00-3.62056129E-03
11 12 7.24112258E-03-3.62056129E-03 0.00000000E+00 0.00000000E+00 0.00000000E+00
11 13 0.00000000E+00-1.29335589E-03 0.00000000E+00 8.67609509E-04 0.00000000E+00
11 14 0.00000000E+00 0.00000000E+00 0.00000000E+00 8.67609509E-04 0.00000000E+00
12  1-1.49618955E-02 8.23318670E-02-0.00000000E+00 8.12667000E-02-0.00000000E+00
12  2-1.58942503E-01-0.00000000E+00-8.25550781E-02-0.00000000E+00 2.64356925E-02
12  3-0.00000000E+00 2.50487705E-02-0.00000000E+00 1.02518682E-02-2.05037363E-02
12  4 1.02518682E-02-0.00000000E+00-0.00000000E+00-0.00000000E+00 7.24010610E-03
12  5-1.44802122E-02 7.24010610E-03-0.00000000E+00-0.00000000E+00-0.00000000E+00
12  6-0.00000000E+00-9.34925714E-03-0.00000000E+00 6.27167235E-03-0.00000000E+00
12  7-0.00000000E+00-0.00000000E+00-0.00000000E+00 6.27167235E-03-0.00000000E+00
12  8 5.26595634E-03-2.27970221E-02-0.00000000E+00-2.62705203E-01-0.00000000E+00
12  9 5.71671922E-02-0.00000000E+00 6.65891388E-01-0.00000000E+00 6.36134636E-02
12 10-0.00000000E+00 3.96032086E-01-0.00000000E+00 2.06089699E-03-4.12179398E-03
12 11 2.06089699E-03-0.00000000E+00-0.00000000E+00-0.00000000E+00 1.05334928E-02
12 12-2.10669857E-02 1.05334928E-02-0.00000000E+00-0.00000000E+00-0.00000000E+00
12 13-0.00000000E+00 3.37655678E-03-0.00000000E+00-2.26506315E-03-0.00000000E+00
12 14-0.00000000E+00-0.00000000E+00-0.00000000E+00-2.26506315E-03-0.00000000E+00
13  1 0.00000000E+00 0.00000000E+00-1.05616786E-02 0.00000000E+00-2.65443381E-02
13  2 0.00000000E+00 1.79781660E-02 0.00000000E+00 4.51839802E-02 0.00000000E+00
13  3 1.17331989E-02 0.00000000E+00 2.94886684E-02 0.00000000E+00 0.00000000E+00
13  4 0.00000000E+00 3.04519136E-03 0.00000000E+00 7.65338407E-03 0.00000000E+00
13  5 0.00000000E+00 0.00000000E+00 1.58690740E-02 0.00000000E+00 3.98832418E-02
13  6-2.87029414E-03 0.00000000E+00-7.21382019E-03 0.00000000E+00-3.22611846E-03
13  7 5.13453826E-03 1.29044739E-02-1.28363456E-03 0.00000000E+00 0.00000000E+00
13  8 0.00000000E+00 0.00000000E+00-9.81749423E-02 0.00000000E+00-2.46739998E-01
13  9 0.00000000E+00 2.49791956E-01 0.00000000E+00 6.27794274E-01 0.00000000E+00
13 10 1.54437744E-01 0.00000000E+00 3.88143528E-01 0.00000000E+00 0.00000000E+00
13 11 0.00000000E+00-1.34176019E-03 0.00000000E+00-3.37220398E-03 0.00000000E+00
13 12 0.00000000E+00 0.00000000E+00-5.27661459E-03 0.00000000E+00-1.32615505E-02
13 13-6.01308818E-04 0.00000000E+00-1.51125062E-03 0.00000000E+00-6.75851823E-04
13 14 1.07565391E-03 2.70340729E-03-2.68913479E-04 0.00000000E+00 0.00000000E+00
14  1 0.00000000E+00 0.00000000E+00-2.65443381E-02 0.00000000E+00 1.05616786E-02
14  2 0.00000000E+00 4.51839802E-02 0.00000000E+00-1.79781660E-02 0.00000000E+00
14  3 2.94886684E-02 0.00000000E+00-1.17331989E-02 0.00000000E+00 0.00000000E+00
14  4 0.00000000E+00 7.65338407E-03 0.00000000E+00-3.04519136E-03 0.00000000E+00
14  5 0.00000000E+00 0.00000000E+00 3.98832418E-02 0.00000000E+00-1.58690740E-02
14  6-7.21382019E-03 0.00000000E+00 2.87029414E-03 0.00000000E+00 1.28363456E-03
14  7 1.29044739E-02-5.13453826E-03-3.22611846E-03 0.00000000E+00 0.00000000E+00
14  8 0.00000000E+00 0.00000000E+00-2.46739998E-01 0.00000000E+00 9.81749423E-02
14  9 0.00000000E+00 6.27794274E-01 0.00000000E+00-2.49791956E-01 0.00000000E+00
14 10 3.88143528E-01 0.00000000E+00-1.54437744E-01 0.00000000E+00 0.00000000E+00
14 11 0.00000000E+00-3.37220398E-03 0.00000000E+00 1.34176019E-03 0.00000000E+00
14 12 0.00000000E+00 0.00000000E+00-1.32615505E-02 0.00000000E+00 5.27661459E-03
14 13-1.51125062E-03 0.00000000E+00 6.01308818E-04 0.00000000E+00 2.68913479E-04
14 14 2.70340729E-03-1.07565391E-03-6.75851823E-04 0.00000000E+00 0.00000000E+00
15  1 2.10046773E-02-1.53004458E-01-0.00000000E+00 6.50125608E-02-0.00000000E+00
15  2 1.84611112E-02-0.00000000E+00-5.88593334E-02-0.00000000E+00 8.88706313E-01
15  3-0.00000000E+00-4.51548356E-01-0.00000000E+00 1.28657912E-03-2.57315824E-03
15  4 1.28657912E-03-0.00000000E+00-0.00000000E+00-0.00000000E+00-3.62643841E-02
15  5 7.25287682E-02-3.62643841E-02-0.00000000E+00-0.00000000E+00-0.00000000E+00
15  6-0.00000000E+00 1.86196198E-02-0.00000000E+00-1.24904207E-02-0.00000000E+00
15  7-0.00000000E+00-0.00000000E+00-0.00000000E+00-1.24904207E-02-0.00000000E+00
15  8-2.95304653E-03 1.55777810E-02-0.00000000E+00-3.01102376E-02-0.00000000E+00
15  9-2.21037718E-02-0.00000000E+00 7.32229816E-02-0.00000000E+00-9.73698677E-02
15 10-0.00000000E+00 1.26938478E-01-0.00000000E+00-6.83628809E-04 1.36725762E-03
15 11-6.83628809E-04-0.00000000E+00-0.00000000E+00-0.00000000E+00 1.94803025E-03
15 12-3.89606049E-03 1.94803025E-03-0.00000000E+00-0.00000000E+00-0.00000000E+00
15 13-0.00000000E+00 7.18462647E-04-0.00000000E+00-4.81959395E-04-0.00000000E+00
15 14-0.00000000E+00-0.00000000E+00-0.00000000E+00-4.81959395E-04-0.00000000E+00
16  1-0.00000000E+00-0.00000000E+00-1.30788133E-02-0.00000000E+00-5.41447615E-02
16  2-0.00000000E+00-4.09443846E-03-0.00000000E+00-1.69505000E-02-0.00000000E+00
16  3 2.38908656E-01-0.00000000E+00 9.89053974E-01-0.00000000E+00-0.00000000E+00
16  4-0.00000000E+00 1.70149097E-03-0.00000000E+00 7.04397399E-03-0.00000000E+00
16  5-0.00000000E+00-0.00000000E+00-3.26505852E-02-0.00000000E+00-1.35169616E-01
16  6-8.76789734E-04-0.00000000E+00-3.62980707E-03-0.00000000E+00-1.62329907E-03
16  7 1.56844916E-03 6.49319629E-03-3.92112289E-04-0.00000000E+00-0.00000000E+00
16  8-0.00000000E+00-0.00000000E+00 7.91118251E-03-0.00000000E+00 3.27513721E-02
16  9-0.00000000E+00-1.88489015E-02-0.00000000E+00-7.80322519E-02-0.00000000E+00
16 10-2.92652533E-02-0.00000000E+00-1.21154733E-01-0.00000000E+00-0.00000000E+00
16 11-0.00000000E+00-8.73951465E-05-0.00000000E+00-3.61805572E-04-0.00000000E+00
16 12-0.00000000E+00-0.00000000E+00-2.30213943E-03-0.00000000E+00-9.53058821E-03
16 13-5.03281387E-05-0.00000000E+00-2.08352606E-04-0.00000000E+00-9.31781179E-05
16 14 9.00297115E-05 3.72712472E-04-2.25074279E-05-0.00000000E+00-0.00000000E+00
17  1-0.00000000E+00-0.00000000E+00-5.41447615E-02-0.00000000E+00 1.30788133E-02
17  2-0.00000000E+00-1.69505000E-02-0.00000000E+00 4.09443846E-03-0.00000000E+00
17  3 9.89053974E-01-0.00000000E+00-2.38908656E-01-0.00000000E+00-0.00000000E+00
17  4-0.00000000E+00 7.04397399E-03-0.00000000E+00-1.70149097E-03-0.00000000E+00
17  5-0.00000000E+00-0.00000000E+00-1.35169616E-01-0.00000000E+00 3.26505852E-02
17  6-3.62980707E-03-0.00000000E+00 8.76789734E-04-0.00000000E+00 3.92112289E-04
17  7 6.49319629E-03-1.56844916E-03-1.62329907E-03-0.00000000E+00-0.00000000E+00
17  8-0.00000000E+00-0.00000000E+00 3.27513721E-02-0.00000000E+00-7.91118251E-03
17  9-0.00000000E+00-7.80322519E-02-0.00000000E+00 1.88489015E-02-0.00000000E+00
17 10-1.21154733E-01-0.00000000E+00 2.92652533E-02-0.00000000E+00-0.00000000E+00
17 11-0.00000000E+00-3.61805572E-04-0.00000000E+00 8.73951465E-05-0.00000000E+00
17 12-0.00000000E+00-0.00000000E+00-9.53058821E-03-0.00000000E+00 2.30213943E-03
17 13-2.08352606E-04-0.00000000E+00 5.03281387E-05-0.00000000E+00 2.25074279E-05
17 14 3.72712472E-04-9.00297115E-05-9.31781179E-05-0.00000000E+00-0.00000000E+00
18  1 1.52124203E-02-1.14591722E-01-0.00000000E+00 1.66150599E-02-0.00000000E+00
18  2-4.52793164E-02-0.00000000E+00-5.99116401E-01-0.00000000E+00 4.22842067E-01
18  3-0.00000000E+00 1.12964450E+00-0.00000000E+00 4.33242219E-03-8.66484439E-03
18  4 4.33242219E-03-0.00000000E+00-0.00000000E+00-0.00000000E+00 1.88490737E-01
18  5-3.76981474E-01 1.88490737E-01-0.00000000E+00-0.00000000E+00-0.00000000E+00
18  6-0.00000000E+00-6.15759541E-02-0.00000000E+00 4.13064057E-02-0.00000000E+00
18  7-0.00000000E+00-0.00000000E+00-0.00000000E+00 4.13064057E-02-0.00000000E+00
18  8-1.16632051E-02 4.97742356E-02-0.00000000E+00-2.52257900E-02-0.00000000E+00
18  9-1.28439028E-01-0.00000000E+00 8.09449466E-02-0.00000000E+00 6.04694003E-02
18 10-0.00000000E+00-2.64762658E-01-0.00000000E+00 3.50094898E-03-7.00189797E-03
18 11 3.50094898E-03-0.00000000E+00-0.00000000E+00-0.00000000E+00-1.54518659E-02
18 12 3.09037318E-02-1.54518659E-02-0.00000000E+00-0.00000000E+00-0.00000000E+00
18 13-0.00000000E+00-1.33395147E-03-0.00000000E+00 8.94841848E-04-0.00000000E+00
18 14-0.00000000E+00-0.00000000E+00-0.00000000E+00 8.94841848E-04-0.00000000E+00
19  1-2.45958346E-02-2.94420264E-02-0.00000000E+00-1.14720742E-01-0.00000000E+00
19  2-1.69635188E+00-0.00000000E+00 7.57698130E-01-0.00000000E+00 1.71508979E+00
19  3-0.00000000E+00-2.59402498E-01-0.00000000E+00-8.43812834E-04 1.68762567E-03
19  4-8.43812834E-04-0.00000000E+00-0.00000000E+00-0.00000000E+00 2.15604237E-02
19  5-4.31208474E-02 2.15604237E-02-0.00000000E+00-0.00000000E+00-0.00000000E+00
19  6-0.00000000E+00 4.24061625E-02-0.00000000E+00-2.84469186E-02-0.00000000E+00
19  7-0.00000000E+00-0.00000000E+00-0.00000000E+00-2.84469186E-02-0.00000000E+00
19  8-1.25279263E-03 1.61563724E-02-0.00000000E+00 2.20411949E-02-0.00000000E+00
19  9 2.41203518E-02-0.00000000E+00-6.20551538E-02-0.00000000E+00-2.87892048E-01
19 10-0.00000000E+00 3.97278092E-02-0.00000000E+00 1.90315003E-03-3.80630006E-03
19 11 1.90315003E-03-0.00000000E+00-0.00000000E+00-0.00000000E+00 8.48492381E-03
19 12-1.69698476E-02 8.48492381E-03-0.00000000E+00-0.00000000E+00-0.00000000E+00
19 13-0.00000000E+00-6.97582120E-04-0.00000000E+00 4.67952312E-04-0.00000000E+00
19 14-0.00000000E+00-0.00000000E+00-0.00000000E+00 4.67952312E-04-0.00000000E+00
20  1-0.00000000E+00-0.00000000E+00 1.66401746E-02-0.00000000E+00-1.93237279E-01
20  2-0.00000000E+00-1.08740420E-01-0.00000000E+00 1.26276938E+00-0.00000000E+00
20  3 7.70092656E-02-0.00000000E+00-8.94285144E-01-0.00000000E+00-0.00000000E+00
20  4-0.00000000E+00-9.28066458E-05-0.00000000E+00 1.07773578E-03-0.00000000E+00
20  5-0.00000000E+00-0.00000000E+00 3.35256374E-02-0.00000000E+00-3.89323000E-01
20  6 5.57955749E-04-0.00000000E+00-6.47937100E-03-0.00000000E+00-2.89766280E-03
20  7-9.98101586E-04 1.15906512E-02 2.49525397E-04-0.00000000E+00-0.00000000E+00
20  8-0.00000000E+00-0.00000000E+00-4.96422318E-04-0.00000000E+00 5.76481855E-03
20  9-0.00000000E+00 1.77084478E-03-0.00000000E+00-2.05643244E-02-0.00000000E+00
20 10-4.44782406E-03-0.00000000E+00 5.16511867E-02-0.00000000E+00-0.00000000E+00
20 11-0.00000000E+00 5.37402980E-04-0.00000000E+00-6.24069816E-03-0.00000000E+00
20 12-0.00000000E+00-0.00000000E+00 2.10808224E-03-0.00000000E+00-2.44805207E-02
20 13 5.96383693E-05-0.00000000E+00-6.92562212E-04-0.00000000E+00-3.09723237E-04
20 14-1.06684358E-04 1.23889295E-03 2.66710896E-05-0.00000000E+00-0.00000000E+00
21  1 0.00000000E+00 0.00000000E+00-1.93237279E-01 0.00000000E+00-1.66401746E-02
21  2 0.00000000E+00 1.26276938E+00 0.00000000E+00 1.08740420E-01 0.00000000E+00
21  3-8.94285144E-01 0.00000000E+00-7.70092656E-02 0.00000000E+00 0.00000000E+00
21  4 0.00000000E+00 1.07773578E-03 0.00000000E+00 9.28066458E-05 0.00000000E+00
21  5 0.00000000E+00 0.00000000E+00-3.89323000E-01 0.00000000E+00-3.35256374E-02
21  6-6.47937100E-03 0.00000000E+00-5.57955749E-04 0.00000000E+00-2.49525397E-04
21  7 1.15906512E-02 9.98101586E-04-2.89766280E-03 0.00000000E+00 0.00000000E+00
21  8 0.00000000E+00 0.00000000E+00 5.76481855E-03 0.00000000E+00 4.96422318E-04
21  9 0.00000000E+00-2.05643244E-02 0.00000000E+00-1.77084478E-03 0.00000000E+00
21 10 5.16511867E-02 0.00000000E+00 4.44782406E-03 0.00000000E+00 0.00000000E+00
21 11 0.00000000E+00-6.24069816E-03 0.00000000E+00-5.37402980E-04 0.00000000E+00
21 12 0.00000000E+00 0.00000000E+00-2.44805207E-02 0.00000000E+00-2.10808224E-03
21 13-6.92562212E-04 0.00000000E+00-5.96383693E-05 0.00000000E+00-2.66710896E-05
21 14 1.23889295E-03 1.06684358E-04-3.09723237E-04 0.00000000E+00 0.00000000E+00
22  1-8.50597192E-03-6.24296163E-03 0.00000000E+00 7.50473807E-02 0.00000000E+00
22  2-4.99544326E-01 0.00000000E+00-2.75061420E-01 0.00000000E+00 8.06183222E-01
22  3 0.00000000E+00 7.25676159E-01 0.00000000E+00 6.40490782E-03-1.28098156E-02
22  4 6.40490782E-03 0.00000000E+00 0.00000000E+00 0.00000000E+00-5.63600013E-01
22  5 1.12720003E+00-5.63600013E-01 0.00000000E+00 0.00000000E+00 0.00000000E+00
22  6 0.00000000E+00 7.34082175E-02 0.00000000E+00-4.92437293E-02 0.00000000E+00
22  7 0.00000000E+00 0.00000000E+00 0.00000000E+00-4.92437293E-02 0.00000000E+00
22  8 5.42782289E-04 2.68618962E-02 0.00000000E+00 5.52119342E-02 0.00000000E+00
22  9 1.06995244E-01 0.00000000E+00-1.50118513E-01 0.00000000E+00-9.79243117E-01
22 10 0.00000000E+00 1.42111368E-01 0.00000000E+00 2.73109238E-03-5.46218475E-03
22 11 2.73109238E-03 0.00000000E+00 0.00000000E+00 0.00000000E+00 1.63249788E-02
22 12-3.26499575E-02 1.63249788E-02 0.00000000E+00 0.00000000E+00 0.00000000E+00
22 13 0.00000000E+00-1.85936366E-03 0.00000000E+00 1.24729906E-03 0.00000000E+00
22 14 0.00000000E+00 0.00000000E+00 0.00000000E+00 1.24729906E-03 0.00000000E+00
23  1-0.00000000E+00-0.00000000E+00-0.00000000E+00-0.00000000E+00-0.00000000E+00
23  2-0.00000000E+00-0.00000000E+00-0.00000000E+00-0.00000000E+00-0.00000000E+00
23  3-0.00000000E+00-0.00000000E+00-0.00000000E+00-4.92942476E-03-0.00000000E+00
23  4 4.92942476E-03-0.00000000E+00-3.14265617E-02-0.00000000E+00 1.55679003E-01
23  5-0.00000000E+00-1.55679003E-01-0.00000000E+00 9.92500358E-01-0.00000000E+00
23  6-0.00000000E+00-0.00000000E+00-0.00000000E+00-1.11935047E-02-0.00000000E+00
23  7-0.00000000E+00-0.00000000E+00-0.00000000E+00 1.11935047E-02-7.13619526E-02
23  8-0.00000000E+00-0.00000000E+00-0.00000000E+00-0.00000000E+00-0.00000000E+00
23  9-0.00000000E+00-0.00000000E+00-0.00000000E+00-0.00000000E+00-0.00000000E+00
23 10-0.00000000E+00-0.00000000E+00-0.00000000E+00 1.48497569E-03-0.00000000E+00
23 11-1.48497569E-03-0.00000000E+00 9.46716544E-03-0.00000000E+00 4.08438146E-03
23 12-0.00000000E+00-4.08438146E-03-0.00000000E+00 2.60391562E-02-0.00000000E+00
23 13-0.00000000E+00-0.00000000E+00-0.00000000E+00-2.77206299E-04-0.00000000E+00
23 14-0.00000000E+00-0.00000000E+00-0.00000000E+00 2.77206299E-04-1.76727327E-03
24  1 0.00000000E+00 0.00000000E+00 0.00000000E+00 0.00000000E+00 0.00000000E+00
24  2 0.00000000E+00 0.00000000E+00 0.00000000E+00 0.00000000E+00 0.00000000E+00
24  3 0.00000000E+00 0.00000000E+00 0.00000000E+00 2.72162008E-02 0.00000000E+00
24  4-2.72162008E-02 0.00000000E+00-5.69200942E-03 0.00000000E+00-8.59530524E-01
24  5 0.00000000E+00 8.59530524E-01 0.00000000E+00 1.79762628E-01 0.00000000E+00
24  6 0.00000000E+00 0.00000000E+00 0.00000000E+00 6.18012638E-02 0.00000000E+00
24  7 0.00000000E+00 0.00000000E+00 0.00000000E+00-6.18012638E-02-1.29251459E-02
24  8 0.00000000E+00 0.00000000E+00 0.00000000E+00 0.00000000E+00 0.00000000E+00
24  9 0.00000000E+00 0.00000000E+00 0.00000000E+00 0.00000000E+00 0.00000000E+00
24 10 0.00000000E+00 0.00000000E+00 0.00000000E+00-8.19880577E-03 0.00000000E+00
24 11 8.19880577E-03 0.00000000E+00 1.71470223E-03 0.00000000E+00-2.25505708E-02
24 12 0.00000000E+00 2.25505708E-02 0.00000000E+00 4.71623747E-03 0.00000000E+00
24 13 0.00000000E+00 0.00000000E+00 0.00000000E+00 1.53050355E-03 0.00000000E+00
24 14 0.00000000E+00 0.00000000E+00 0.00000000E+00-1.53050355E-03-3.20090263E-04
25  1-0.00000000E+00-0.00000000E+00 3.83204894E-04-0.00000000E+00-8.51386224E-02
25  2-0.00000000E+00-2.48609566E-03-0.00000000E+00 5.52348797E-01-0.00000000E+00
25  3 5.91236692E-04-0.00000000E+00-1.31358229E-01-0.00000000E+00-0.00000000E+00
25  4-0.00000000E+00 1.46906980E-04-0.00000000E+00-3.26390519E-02-0.00000000E+00
25  5-0.00000000E+00-0.00000000E+00-4.67374044E-03-0.00000000E+00 1.03838836E+00
25  6-2.92378065E-04-0.00000000E+00 6.49590800E-02-0.00000000E+00 2.90505837E-02
25  7 5.23021783E-04-1.16202335E-01-1.30755446E-04-0.00000000E+00-0.00000000E+00
25  8-0.00000000E+00-0.00000000E+00-2.92983256E-04-0.00000000E+00 6.50936193E-02
25  9-0.00000000E+00 7.33465884E-04-0.00000000E+00-1.62957930E-01-0.00000000E+00
25 10 1.79453759E-03-0.00000000E+00-3.98701636E-01-0.00000000E+00-0.00000000E+00
25 11-0.00000000E+00 1.23579884E-04-0.00000000E+00-2.74563797E-02-0.00000000E+00
25 12-0.00000000E+00-0.00000000E+00 2.13909092E-04-0.00000000E+00-4.75253159E-02
25 13 3.34070117E-06-0.00000000E+00-7.42221126E-04-0.00000000E+00-3.31931378E-04
25 14-5.97602792E-06 1.32772551E-03 1.49400698E-06-0.00000000E+00-0.00000000E+00
26  1 0.00000000E+00 0.00000000E+00-8.51386224E-02 0.00000000E+00-3.83204894E-04
26  2 0.00000000E+00 5.52348797E-01 0.00000000E+00 2.48609566E-03 0.00000000E+00
26  3-1.31358229E-01 0.00000000E+00-5.91236692E-04 0.00000000E+00 0.00000000E+00
26  4 0.00000000E+00-3.26390519E-02 0.00000000E+00-1.46906980E-04 0.00000000E+00
26  5 0.00000000E+00 0.00000000E+00 1.03838836E+00 0.00000000E+00 4.67374044E-03
26  6 6.49590800E-02 0.00000000E+00 2.92378065E-04 0.00000000E+00 1.30755446E-04
26  7-1.16202335E-01-5.23021783E-04 2.90505837E-02 0.00000000E+00 0.00000000E+00
26  8 0.00000000E+00 0.00000000E+00 6.50936193E-02 0.00000000E+00 2.92983256E-04
26  9 0.00000000E+00-1.62957930E-01 0.00000000E+00-7.33465884E-04 0.00000000E+00
26 10-3.98701636E-01 0.00000000E+00-1.79453759E-03 0.00000000E+00 0.00000000E+00
26 11 0.00000000E+00-2.74563797E-02 0.00000000E+00-1.23579884E-04 0.00000000E+00