 $contrl nprint=7 $end
 $contrl PLTORB=.t. MOLPLT=.t. $end
 $pdc ptsel=chelpg constr=charge $end
 $elpot iepot=1 where=pdc $end
 $guess guess=moread norb=14 $end
 $CONTRL SCFTYP=RHF RUNTYP=energy MAXIT=30 MULT=1 ISPHER=1 $END
 $SYSTEM mwords=100 $END
 $BASIS GBASIS=n21 ngauss=3 $END
 $SCF DIRSCF=.TRUE. $END
 $STATPT OPTTOL=0.0001 NSTEP=20 $END
 $DATA 
Title
C1
 NA         11.0   0.0000000000  -1.4993243524   0.0000000000
 CL         17.0   0.0000000000   0.8916843524   0.0000000000
 $END
--- CLOSED SHELL ORBITALS --- GENERATED AT 20:30:20 29-SEP-2025    
Title                                                                           
E(RHF)=     -618.2430470678, E(NUC)=   41.3867776429,    9 ITERS
 $VEC   
 1  1 1.22881845E-05-1.71711724E-04 0.00000000E+00-1.64257919E-04 0.00000000E+00
 1  2-1.40216091E-03 0.00000000E+00-2.05695802E-03 0.00000000E+00-5.94068909E-04
 1  3 0.00000000E+00-1.64626409E-04 0.00000000E+00 9.85891626E-01 5.30655756E-02
 1  4 0.00000000E+00-1.35961223E-04 0.00000000E+00-1.86329751E-02 0.00000000E+00
 1  5 5.25896513E-04 0.00000000E+00 1.11306956E-02 0.00000000E+00-1.39842462E-03
 1  6 0.00000000E+00
 2  1 9.90455581E-01 3.89871510E-02-0.00000000E+00 1.35202408E-05-0.00000000E+00
 2  2-5.25573387E-03-0.00000000E+00 3.37929011E-04-0.00000000E+00 1.25611823E-03
 2  3-0.00000000E+00-5.83543799E-04-0.00000000E+00 1.72964527E-05-1.24522731E-04
 2  4-0.00000000E+00 3.01648046E-04-0.00000000E+00 4.26589652E-04-0.00000000E+00
 2  5-1.41966951E-03-0.00000000E+00 4.12490767E-04-0.00000000E+00 1.61281888E-03
 2  6-0.00000000E+00
 3  1-9.32475153E-05 9.98937490E-04-0.00000000E+00 9.01012256E-04-0.00000000E+00
 3  2 8.20434099E-03-0.00000000E+00 1.20323110E-02-0.00000000E+00 3.41597084E-03
 3  3-0.00000000E+00 8.78316626E-04-0.00000000E+00-3.05992645E-01 9.83303349E-01
 3  4-0.00000000E+00-4.65818203E-03-0.00000000E+00 1.39703867E-01-0.00000000E+00
 3  5-3.88795410E-03-0.00000000E+00-6.55095004E-02-0.00000000E+00 8.32682371E-03
 3  6-0.00000000E+00
 4  1 2.13021981E-04-2.29756092E-03 0.00000000E+00-1.18291095E-03 0.00000000E+00
 4  2-1.21249038E-02 0.00000000E+00-1.17675609E-02 0.00000000E+00 5.35723484E-03
 4  3 0.00000000E+00 6.89872294E-03 0.00000000E+00-1.79660859E-03 6.23962599E-03
 4  4 0.00000000E+00 9.73670038E-01 0.00000000E+00-4.42963588E-03 0.00000000E+00
 4  5 8.18439315E-02 0.00000000E+00 9.32728742E-03 0.00000000E+00-3.07797242E-02
 4  6 0.00000000E+00
 5  1-0.00000000E+00-0.00000000E+00 2.81047822E-06-0.00000000E+00 2.10174731E-05
 5  2-0.00000000E+00 3.44253703E-04-0.00000000E+00 2.57441831E-03-0.00000000E+00
 5  3 1.15893106E-04-0.00000000E+00 8.66678747E-04-0.00000000E+00-0.00000000E+00
 5  4 1.29130523E-01-0.00000000E+00 9.65671474E-01-0.00000000E+00 1.04875976E-02
 5  5-0.00000000E+00 7.84289693E-02-0.00000000E+00-3.16172941E-03-0.00000000E+00
 5  6-2.36442308E-02
 6  1-0.00000000E+00-0.00000000E+00 2.10174731E-05-0.00000000E+00-2.81047822E-06
 6  2-0.00000000E+00 2.57441831E-03-0.00000000E+00-3.44253703E-04-0.00000000E+00
 6  3 8.66678747E-04-0.00000000E+00-1.15893106E-04-0.00000000E+00-0.00000000E+00
 6  4 9.65671474E-01-0.00000000E+00-1.29130523E-01-0.00000000E+00 7.84289693E-02
 6  5-0.00000000E+00-1.04875976E-02-0.00000000E+00-2.36442308E-02-0.00000000E+00
 6  6 3.16172941E-03
 7  1-2.68672042E-01 1.02259602E+00-0.00000000E+00-1.39873623E-02-0.00000000E+00
 7  2 4.99699258E-02-0.00000000E+00 1.04671994E-03-0.00000000E+00-2.59382390E-02
 7  3-0.00000000E+00 3.13684144E-04-0.00000000E+00 9.64715642E-05-4.74141854E-04
 7  4-0.00000000E+00 3.65250536E-04-0.00000000E+00-1.61836062E-04-0.00000000E+00
 7  5 8.74109610E-05-0.00000000E+00-2.60161801E-03-0.00000000E+00 6.27611055E-04
 7  6-0.00000000E+00
 8  1-0.00000000E+00-0.00000000E+00 4.26617103E-03-0.00000000E+00 9.91910491E-01
 8  2-0.00000000E+00 3.00206772E-04-0.00000000E+00 6.97999246E-02-0.00000000E+00
 8  3-1.50692386E-04-0.00000000E+00-3.50368293E-02-0.00000000E+00-0.00000000E+00
 8  4-2.46412097E-06-0.00000000E+00-5.72918259E-04-0.00000000E+00 5.12797909E-06
 8  5-0.00000000E+00 1.19227648E-03-0.00000000E+00-1.32179686E-05-0.00000000E+00
 8  6-3.07327688E-03
 9  1 0.00000000E+00 0.00000000E+00 9.91910491E-01 0.00000000E+00-4.26617103E-03
 9  2 0.00000000E+00 6.97999246E-02 0.00000000E+00-3.00206772E-04 0.00000000E+00
 9  3-3.50368293E-02 0.00000000E+00 1.50692386E-04 0.00000000E+00 0.00000000E+00
 9  4-5.72918259E-04 0.00000000E+00 2.46412097E-06 0.00000000E+00 1.19227648E-03
 9  5 0.00000000E+00-5.12797909E-06 0.00000000E+00-3.07327688E-03 0.00000000E+00
 9  6 1.32179686E-05
10  1-3.60567788E-03 1.25089570E-02 0.00000000E+00 9.89929499E-01 0.00000000E+00
10  2-1.74829734E-02 0.00000000E+00 5.69498117E-02 0.00000000E+00 9.18801224E-03
10  3 0.00000000E+00-2.63217292E-02 0.00000000E+00 1.57578640E-03-9.01381487E-03
10  4 0.00000000E+00 3.36099090E-03 0.00000000E+00 6.92311451E-04 0.00000000E+00
10  5-1.64229853E-03 0.00000000E+00 1.67722176E-02 0.00000000E+00-2.22531158E-02
10  6 0.00000000E+00
11  1 6.03184961E-03-3.04038790E-02 0.00000000E+00-5.40387865E-02 0.00000000E+00
11  2 8.43078949E-03 0.00000000E+00-7.26208434E-03 0.00000000E+00-1.12436705E-03
11  3 0.00000000E+00 4.16516805E-03 0.00000000E+00 7.92287665E-02-4.66303822E-01
11  4 0.00000000E+00 1.59040198E-02 0.00000000E+00 5.61973136E-01 0.00000000E+00
11  5-3.03070142E-02 0.00000000E+00 5.56000044E-01 0.00000000E+00-4.14933557E-02
11  6 0.00000000E+00
12  1-1.68651954E-02 8.21715757E-02 0.00000000E+00 7.88315529E-02 0.00000000E+00
12  2-1.68105155E-01 0.00000000E+00-7.21951050E-02 0.00000000E+00 4.36347290E-02
12  3 0.00000000E+00 4.66079139E-02 0.00000000E+00 7.40810120E-03-4.47088639E-02
12  4 0.00000000E+00-2.62117758E-01 0.00000000E+00 7.19660715E-02 0.00000000E+00
12  5 5.55382253E-01 0.00000000E+00 5.71995951E-02 0.00000000E+00 5.18798713E-01
12  6 0.00000000E+00
13  1-0.00000000E+00-0.00000000E+00-2.83850999E-02-0.00000000E+00-3.87539330E-03
13  2-0.00000000E+00 6.59135004E-02-0.00000000E+00 8.99911356E-03-0.00000000E+00
13  3 1.80160423E-02-0.00000000E+00 2.45971477E-03-0.00000000E+00-0.00000000E+00
13  4-2.64192546E-01-0.00000000E+00-3.60699813E-02-0.00000000E+00 5.60171202E-01
13  5-0.00000000E+00 7.64796928E-02-0.00000000E+00 5.43125631E-01-0.00000000E+00
13  6 7.41524757E-02
14  1-0.00000000E+00-0.00000000E+00 3.87539330E-03-0.00000000E+00-2.83850999E-02
14  2-0.00000000E+00-8.99911356E-03-0.00000000E+00 6.59135004E-02-0.00000000E+00
14  3-2.45971477E-03-0.00000000E+00 1.80160423E-02-0.00000000E+00-0.00000000E+00
14  4 3.60699813E-02-0.00000000E+00-2.64192546E-01-0.00000000E+00-7.64796928E-02
14  5-0.00000000E+00 5.60171202E-01-0.00000000E+00-7.41524757E-02-0.00000000E+00
14  6 5.43125631E-01
15  1 2.41512633E-02-1.52341064E-01-0.00000000E+00 6.53545832E-02-0.00000000E+00
15  2-1.97097348E-02-0.00000000E+00-1.92112277E-01-0.00000000E+00 8.79893854E-01
15  3-0.00000000E+00-3.62510028E-01-0.00000000E+00-3.01353823E-03 1.82082169E-02
15  4-0.00000000E+00-3.28759464E-02-0.00000000E+00-3.37863396E-02-0.00000000E+00
15  5 6.92959949E-02-0.00000000E+00 4.77959234E-03-0.00000000E+00 8.21783271E-02
15  6-0.00000000E+00
16  1-0.00000000E+00-0.00000000E+00-4.23602077E-02-0.00000000E+00-1.12135393E-02
16  2-0.00000000E+00-8.43345653E-02-0.00000000E+00-2.23249375E-02-0.00000000E+00
16  3 1.04919870E+00-0.00000000E+00 2.77742530E-01-0.00000000E+00-0.00000000E+00
16  4 3.79051309E-02-0.00000000E+00 1.00341975E-02-0.00000000E+00-7.14971734E-02
16  5-0.00000000E+00-1.89266397E-02-0.00000000E+00-1.74168758E-01-0.00000000E+00
16  6-4.61057295E-02
17  1 0.00000000E+00 0.00000000E+00 1.12135393E-02 0.00000000E+00-4.23602077E-02
17  2 0.00000000E+00 2.23249375E-02 0.00000000E+00-8.43345653E-02 0.00000000E+00
17  3-2.77742530E-01 0.00000000E+00 1.04919870E+00 0.00000000E+00 0.00000000E+00
17  4-1.00341975E-02 0.00000000E+00 3.79051309E-02 0.00000000E+00 1.89266397E-02
17  5 0.00000000E+00-7.14971734E-02 0.00000000E+00 4.61057295E-02 0.00000000E+00
17  6-1.74168758E-01
18  1 2.08678329E-02-8.61790009E-02-0.00000000E+00 3.68641223E-02-0.00000000E+00
18  2 4.91603154E-01-0.00000000E+00-6.08067719E-01-0.00000000E+00 4.88276873E-02
18  3-0.00000000E+00 1.33886910E+00-0.00000000E+00-1.08164495E-02 6.71264293E-02
18  4-0.00000000E+00-1.98229434E-02-0.00000000E+00-3.54701263E-02-0.00000000E+00
18  5 5.48263137E-02-0.00000000E+00-3.43288654E-01-0.00000000E+00-3.49573873E-02
18  6-0.00000000E+00
19  1-1.90506696E-02-3.52123204E-02 0.00000000E+00-1.02496928E-01 0.00000000E+00
19  2-1.63409556E+00 0.00000000E+00 7.69095379E-01 0.00000000E+00 1.77994852E+00
19  3 0.00000000E+00-1.46057215E-01 0.00000000E+00-5.52631569E-03 3.50873704E-02
19  4 0.00000000E+00 1.53643779E-02 0.00000000E+00 2.35615844E-02 0.00000000E+00
19  5-3.43121666E-02 0.00000000E+00-3.85494014E-01 0.00000000E+00-2.78676570E-02
19  6 0.00000000E+00
20  1-0.00000000E+00-0.00000000E+00 3.58700342E-03-0.00000000E+00-1.89904156E-01
20  2-0.00000000E+00-3.05942683E-02-0.00000000E+00 1.61973040E+00-0.00000000E+00
20  3 2.19443068E-02-0.00000000E+00-1.16178170E+00-0.00000000E+00-0.00000000E+00
20  4-5.51150546E-04-0.00000000E+00 2.91791678E-02-0.00000000E+00 1.04190014E-03
20  5-0.00000000E+00-5.51605719E-02-0.00000000E+00 3.12987071E-03-0.00000000E+00
20  6-1.65702500E-01
21  1 0.00000000E+00 0.00000000E+00-1.89904156E-01 0.00000000E+00-3.58700342E-03
21  2 0.00000000E+00 1.61973040E+00 0.00000000E+00 3.05942683E-02 0.00000000E+00
21  3-1.16178170E+00 0.00000000E+00-2.19443068E-02 0.00000000E+00 0.00000000E+00
21  4 2.91791678E-02 0.00000000E+00 5.51150546E-04 0.00000000E+00-5.51605719E-02
21  5 0.00000000E+00-1.04190014E-03 0.00000000E+00-1.65702500E-01 0.00000000E+00
21  6-3.12987071E-03
22  1 2.19672213E-02-5.64403511E-03 0.00000000E+00-1.19681336E-01 0.00000000E+00
22  2 1.54584399E+00 0.00000000E+00 1.81716237E+00 0.00000000E+00-8.54973824E-01
22  3 0.00000000E+00-1.02324317E+00 0.00000000E+00-9.99950764E-03 6.45655772E-02
22  4 0.00000000E+00-7.76156247E-02 0.00000000E+00 4.34635756E-02 0.00000000E+00
22  5 1.34104749E-01 0.00000000E+00-7.59651638E-01 0.00000000E+00 6.64159625E-01
22  6 0.00000000E+00
23  1-3.12019654E-03 2.38102680E-02-0.00000000E+00-2.74822637E-03-0.00000000E+00
23  2-5.19422663E-02-0.00000000E+00-2.13950949E-01-0.00000000E+00-2.64970151E-01
23  3-0.00000000E+00-1.95064722E-01-0.00000000E+00-6.69572251E-02 4.07895737E-01
23  4-0.00000000E+00 1.30892762E-01-0.00000000E+00-1.86895778E+00-0.00000000E+00
23  5-4.45160746E-01-0.00000000E+00 2.00888871E+00-0.00000000E+00 3.47214043E-01
23  6-0.00000000E+00
24  1-0.00000000E+00-0.00000000E+00-9.05684877E-05-0.00000000E+00-5.56597507E-04
24  2-0.00000000E+00 2.69749775E-02-0.00000000E+00 1.65777357E-01-0.00000000E+00
24  3 6.42386367E-03-0.00000000E+00 3.94784812E-02-0.00000000E+00-0.00000000E+00
24  4-5.77449928E-02-0.00000000E+00-3.54877489E-01-0.00000000E+00 2.01405587E-01
24  5-0.00000000E+00 1.23775769E+00-0.00000000E+00-1.97317677E-01-0.00000000E+00
24  6-1.21263504E+00
25  1 0.00000000E+00 0.00000000E+00-5.56597507E-04 0.00000000E+00 9.05684877E-05
25  2 0.00000000E+00 1.65777357E-01 0.00000000E+00-2.69749775E-02 0.00000000E+00
25  3 3.94784812E-02 0.00000000E+00-6.42386367E-03 0.00000000E+00 0.00000000E+00
25  4-3.54877489E-01 0.00000000E+00 5.77449928E-02 0.00000000E+00 1.23775769E+00
25  5 0.00000000E+00-2.01405587E-01 0.00000000E+00-1.21263504E+00 0.00000000E+00
25  6 1.97317677E-01
26  1-9.65325699E-03 1.19161632E-01 0.00000000E+00 8.58035962E-02 0.00000000E+00
26  2 8.25525255E-01 0.00000000E+00 8.24377010E-01 0.00000000E+00-2.65115416E-01
26  3 0.00000000E+00-3.45830914E-01 0.00000000E+00 2.82890013E-02-1.70498301E-01
26  4 0.00000000E+00 3.40754577E-01 0.00000000E+00 9.32890951E-01 0.00000000E+00
26  5-1.23822144E+00 0.00000000E+00-1.31174321E+00 0.00000000E+00 1.53913079E+00
26  6 0.00000000E+00
 $END   
