 $contrl nprint=7 $end
 $contrl PLTORB=.t. MOLPLT=.t. $end
 $pdc ptsel=chelpg constr=charge $end
 $elpot iepot=1 where=pdc $end
 $guess guess=moread norb=14 $end
 $CONTRL SCFTYP=RHF RUNTYP=energy MAXIT=30 MULT=1 ISPHER=1 $END
 $SYSTEM mwords=100 $END
 $BASIS GBASIS=n31 ngauss=6 ndfunc=1 $END
 $SCF DIRSCF=.TRUE. $END
 $STATPT OPTTOL=0.0001 NSTEP=20 $END
 $DATA 
Title
C1
 NA         11.0   0.0000000000  -1.4993243524   0.0000000000
 CL         17.0   0.0000000000   0.8916843524   0.0000000000
 $END
--- CLOSED SHELL ORBITALS --- GENERATED AT 20:30:28 29-SEP-2025    
Title                                                                           
E(RHF)=     -621.3981646467, E(NUC)=   41.3867776429,    9 ITERS
 $VEC   
 1  1 3.30476279E-06-1.07486069E-04 0.00000000E+00-3.87452925E-05 0.00000000E+00
 1  2-8.27255415E-04 0.00000000E+00-9.46113877E-04 0.00000000E+00-1.13808875E-04
 1  3 0.00000000E+00-1.07897431E-04 0.00000000E+00 2.00928898E-04-4.01857795E-04
 1  4 2.00928898E-04 0.00000000E+00 0.00000000E+00 0.00000000E+00 9.96527518E-01
 1  5 1.25725902E-02 0.00000000E+00-4.51943122E-05 0.00000000E+00-4.28726701E-03
 1  6 0.00000000E+00 1.73569391E-04 0.00000000E+00 3.35767007E-03 0.00000000E+00
 1  7-8.81902491E-04 0.00000000E+00-4.53517879E-05 9.07035758E-05-4.53517879E-05
 1  8 0.00000000E+00 0.00000000E+00 0.00000000E+00
 2  1 9.97908122E-01 8.86849306E-03 0.00000000E+00-6.51558844E-05 0.00000000E+00
 2  2-1.45844459E-03 0.00000000E+00 9.21987416E-06 0.00000000E+00 5.68182809E-04
 2  3 0.00000000E+00-8.78276498E-05 0.00000000E+00 4.02265763E-05-8.04531526E-05
 2  4 4.02265763E-05 0.00000000E+00 0.00000000E+00 0.00000000E+00 5.95555449E-06
 2  5-1.47929545E-05 0.00000000E+00 5.23077645E-05 0.00000000E+00 1.18533339E-04
 2  6 0.00000000E+00-2.53346667E-04 0.00000000E+00 9.18693929E-05 0.00000000E+00
 2  7 2.25649250E-04 0.00000000E+00-3.02094030E-06 6.04188060E-06-3.02094030E-06
 2  8 0.00000000E+00 0.00000000E+00 0.00000000E+00
 3  1-7.55479363E-06 2.75464821E-04-0.00000000E+00 9.16051668E-05-0.00000000E+00
 3  2 2.08957342E-03-0.00000000E+00 2.37305845E-03-0.00000000E+00 3.90712651E-04
 3  3-0.00000000E+00 3.65405739E-04-0.00000000E+00-4.69344340E-04 9.38688680E-04
 3  4-4.69344340E-04-0.00000000E+00-0.00000000E+00-0.00000000E+00-2.86818834E-01
 3  5 1.03120447E+00-0.00000000E+00-1.49067277E-03-0.00000000E+00 2.35165436E-02
 3  6-0.00000000E+00-7.15771667E-04-0.00000000E+00-9.55813015E-03-0.00000000E+00
 3  7 2.26960058E-03-0.00000000E+00 6.94662824E-05-1.38932565E-04 6.94662824E-05
 3  8-0.00000000E+00-0.00000000E+00-0.00000000E+00
 4  1 3.23501072E-05-5.68794984E-04-0.00000000E+00-1.59549676E-04-0.00000000E+00
 4  2-2.28018147E-03-0.00000000E+00-1.70423450E-03-0.00000000E+00 8.57431614E-04
 4  3-0.00000000E+00 7.18245315E-04-0.00000000E+00-1.08610362E-04 2.17220724E-04
 4  4-1.08610362E-04-0.00000000E+00-0.00000000E+00-0.00000000E+00-5.19676769E-04
 4  5 1.82109281E-03-0.00000000E+00 9.93260628E-01-0.00000000E+00-1.13450847E-03
 4  6-0.00000000E+00 2.15100118E-02-0.00000000E+00 1.74777906E-03-0.00000000E+00
 4  7-6.33301506E-03-0.00000000E+00 6.05207014E-05-1.21041403E-04 6.05207014E-05
 4  8-0.00000000E+00-0.00000000E+00-0.00000000E+00
 5  1 0.00000000E+00 0.00000000E+00 1.95192908E-05 0.00000000E+00-1.19330820E-06
 5  2 0.00000000E+00 3.52115235E-04 0.00000000E+00-2.15264998E-05 0.00000000E+00
 5  3 4.45316549E-04 0.00000000E+00-2.72243443E-05 0.00000000E+00 0.00000000E+00
 5  4 0.00000000E+00 3.56683645E-04 0.00000000E+00-2.18057889E-05 0.00000000E+00
 5  5 0.00000000E+00 9.91569012E-01 0.00000000E+00-6.06193872E-02 0.00000000E+00
 5  6 2.08148730E-02 0.00000000E+00-1.27251339E-03 0.00000000E+00-5.04055419E-03
 5  7 0.00000000E+00 3.08153343E-04 0.00000000E+00 0.00000000E+00 0.00000000E+00
 5  8-8.74248932E-05 0.00000000E+00 5.34470798E-06
 6  1-0.00000000E+00-0.00000000E+00 1.19330820E-06-0.00000000E+00 1.95192908E-05
 6  2-0.00000000E+00 2.15264998E-05-0.00000000E+00 3.52115235E-04-0.00000000E+00
 6  3 2.72243443E-05-0.00000000E+00 4.45316549E-04-0.00000000E+00-0.00000000E+00
 6  4-0.00000000E+00 2.18057889E-05-0.00000000E+00 3.56683645E-04-0.00000000E+00
 6  5-0.00000000E+00 6.06193872E-02-0.00000000E+00 9.91569012E-01-0.00000000E+00
 6  6 1.27251339E-03-0.00000000E+00 2.08148730E-02-0.00000000E+00-3.08153343E-04
 6  7-0.00000000E+00-5.04055419E-03-0.00000000E+00-0.00000000E+00-0.00000000E+00
 6  8-5.34470798E-06-0.00000000E+00-8.74248932E-05
 7  1-2.45800179E-01 1.02759292E+00 0.00000000E+00-1.49850204E-02 0.00000000E+00
 7  2-7.76693363E-03 0.00000000E+00-4.00083593E-03 0.00000000E+00 4.03904167E-03
 7  3 0.00000000E+00 8.97664313E-04 0.00000000E+00 9.06321514E-04-1.81264303E-03
 7  4 9.06321514E-04 0.00000000E+00 0.00000000E+00 0.00000000E+00 1.28387468E-04
 7  5-7.03426643E-04 0.00000000E+00 5.70454256E-04 0.00000000E+00 6.11222483E-04
 7  6 0.00000000E+00-1.42352663E-03 0.00000000E+00 3.76667740E-03 0.00000000E+00
 7  7-2.30285679E-03 0.00000000E+00-3.08288351E-04 6.16576703E-04-3.08288351E-04
 7  8 0.00000000E+00 0.00000000E+00 0.00000000E+00
 8  1 0.00000000E+00 0.00000000E+00-1.04678333E-01 0.00000000E+00 9.92848985E-01
 8  2 0.00000000E+00-9.30653555E-04 0.00000000E+00 8.82702664E-03 0.00000000E+00
 8  3 1.81362758E-04 0.00000000E+00-1.72018243E-03 0.00000000E+00 0.00000000E+00
 8  4 0.00000000E+00 4.44425433E-04 0.00000000E+00-4.21526896E-03 0.00000000E+00
 8  5 0.00000000E+00 6.89415240E-05 0.00000000E+00-6.53894026E-04 0.00000000E+00
 8  6-1.55863713E-04 0.00000000E+00 1.47833046E-03 0.00000000E+00-1.39001942E-04
 8  7 0.00000000E+00 1.31840035E-03 0.00000000E+00 0.00000000E+00 0.00000000E+00
 8  8 1.12945538E-04 0.00000000E+00-1.07126148E-03
 9  1-0.00000000E+00-0.00000000E+00 9.92848985E-01-0.00000000E+00 1.04678333E-01
 9  2-0.00000000E+00 8.82702664E-03-0.00000000E+00 9.30653555E-04-0.00000000E+00
 9  3-1.72018243E-03-0.00000000E+00-1.81362758E-04-0.00000000E+00-0.00000000E+00
 9  4-0.00000000E+00-4.21526896E-03-0.00000000E+00-4.44425433E-04-0.00000000E+00
 9  5-0.00000000E+00-6.53894026E-04-0.00000000E+00-6.89415240E-05-0.00000000E+00
 9  6 1.47833046E-03-0.00000000E+00 1.55863713E-04-0.00000000E+00 1.31840035E-03
 9  7-0.00000000E+00 1.39001942E-04-0.00000000E+00-0.00000000E+00-0.00000000E+00
 9  8-1.07126148E-03-0.00000000E+00-1.12945538E-04
10  1-3.73940460E-03 1.52498261E-02 0.00000000E+00 9.97346226E-01 0.00000000E+00
10  2-1.07068238E-02 0.00000000E+00 3.25853989E-03 0.00000000E+00 3.02751543E-03
10  3 0.00000000E+00-8.22073334E-04 0.00000000E+00 3.64538951E-03-7.29077902E-03
10  4 3.64538951E-03 0.00000000E+00 0.00000000E+00 0.00000000E+00 1.69983818E-03
10  5-8.04410759E-03 0.00000000E+00 4.64058480E-03 0.00000000E+00 1.36632663E-02
10  6 0.00000000E+00-1.19632283E-02 0.00000000E+00 1.20106143E-02 0.00000000E+00
10  7-5.23145108E-03 0.00000000E+00-1.76570905E-03 3.53141809E-03-1.76570905E-03
10  8 0.00000000E+00 0.00000000E+00 0.00000000E+00
11  1 5.18875087E-03-2.81908961E-02 0.00000000E+00-5.18773452E-02 0.00000000E+00
11  2 2.69147645E-02 0.00000000E+00 2.02906073E-02 0.00000000E+00-5.93919553E-03
11  3 0.00000000E+00-3.87571117E-03 0.00000000E+00-6.66545027E-03 1.33309005E-02
11  4-6.66545027E-03 0.00000000E+00 0.00000000E+00 0.00000000E+00 8.05990474E-02
11  5-3.73063483E-01 0.00000000E+00 8.79058853E-03 0.00000000E+00 7.12755136E-01
11  6 0.00000000E+00-1.89787626E-02 0.00000000E+00 3.70556669E-01 0.00000000E+00
11  7-1.15341547E-02 0.00000000E+00-2.36505703E-03 4.73011405E-03-2.36505703E-03
11  8 0.00000000E+00 0.00000000E+00 0.00000000E+00
12  1-1.50011660E-02 7.99381282E-02-0.00000000E+00 8.04369551E-02-0.00000000E+00
12  2-1.86040479E-01-0.00000000E+00-1.06199440E-01-0.00000000E+00 3.78480929E-02
12  3-0.00000000E+00 3.52178478E-02-0.00000000E+00 2.10795170E-02-4.21590340E-02
12  4 2.10795170E-02-0.00000000E+00-0.00000000E+00-0.00000000E+00 5.70520600E-03
12  5-2.60755558E-02-0.00000000E+00-2.62572326E-01-0.00000000E+00 5.68603148E-02
12  6-0.00000000E+00 6.66692197E-01-0.00000000E+00 8.35530662E-02-0.00000000E+00
12  7 3.74359430E-01-0.00000000E+00 7.32489744E-03-1.46497949E-02 7.32489744E-03
12  8-0.00000000E+00-0.00000000E+00-0.00000000E+00
13  1 0.00000000E+00 0.00000000E+00-1.95964922E-02 0.00000000E+00-2.10863800E-02
13  2 0.00000000E+00 3.34485834E-02 0.00000000E+00 3.59916229E-02 0.00000000E+00
13  3 1.91729248E-02 0.00000000E+00 2.06306090E-02 0.00000000E+00 0.00000000E+00
13  4 0.00000000E+00 2.24036401E-02 0.00000000E+00 2.41069535E-02 0.00000000E+00
13  5 0.00000000E+00-1.80711735E-01 0.00000000E+00-1.94450937E-01 0.00000000E+00
13  6 4.58709533E-01 0.00000000E+00 4.93584428E-01 0.00000000E+00 2.96920748E-01
13  7 0.00000000E+00 3.19495121E-01 0.00000000E+00 0.00000000E+00 0.00000000E+00
13  8-8.52303344E-03 0.00000000E+00-9.17102560E-03
14  1-0.00000000E+00-0.00000000E+00-2.10863800E-02-0.00000000E+00 1.95964922E-02
14  2-0.00000000E+00 3.59916229E-02-0.00000000E+00-3.34485834E-02-0.00000000E+00
14  3 2.06306090E-02-0.00000000E+00-1.91729248E-02-0.00000000E+00-0.00000000E+00
14  4-0.00000000E+00 2.41069535E-02-0.00000000E+00-2.24036401E-02-0.00000000E+00
14  5-0.00000000E+00-1.94450937E-01-0.00000000E+00 1.80711735E-01-0.00000000E+00
14  6 4.93584428E-01-0.00000000E+00-4.58709533E-01-0.00000000E+00 3.19495121E-01
14  7-0.00000000E+00-2.96920748E-01-0.00000000E+00-0.00000000E+00-0.00000000E+00
14  8-9.17102560E-03-0.00000000E+00 8.52303344E-03
15  1 2.10741799E-02-1.56757265E-01 0.00000000E+00 6.71692053E-02 0.00000000E+00
15  2-1.69586477E-02 0.00000000E+00-1.29734264E-01 0.00000000E+00 8.80387902E-01
15  3 0.00000000E+00-4.37710655E-01 0.00000000E+00-3.41070394E-03 6.82140788E-03
15  4-3.41070394E-03 0.00000000E+00 0.00000000E+00 0.00000000E+00-3.25918206E-03
15  5 1.34612042E-02 0.00000000E+00-3.15652836E-02 0.00000000E+00-3.75049263E-02
15  6 0.00000000E+00 7.79165997E-02 0.00000000E+00 2.79747240E-03 0.00000000E+00
15  7 8.13307375E-02 0.00000000E+00-6.30233295E-04 1.26046659E-03-6.30233295E-04
15  8 0.00000000E+00 0.00000000E+00 0.00000000E+00
16  1 0.00000000E+00 0.00000000E+00-3.74914357E-02 0.00000000E+00-4.00775335E-02
16  2 0.00000000E+00-1.26614495E-02 0.00000000E+00-1.35348158E-02 0.00000000E+00
16  3 7.10523899E-01 0.00000000E+00 7.59534674E-01 0.00000000E+00 0.00000000E+00
16  4 0.00000000E+00-2.35127510E-02 0.00000000E+00-2.51346222E-02 0.00000000E+00
16  5 0.00000000E+00 2.48927329E-02 0.00000000E+00 2.66097927E-02 0.00000000E+00
16  6-5.65806178E-02 0.00000000E+00-6.04834559E-02 0.00000000E+00-1.22060590E-01
16  7 0.00000000E+00-1.30480130E-01 0.00000000E+00 0.00000000E+00 0.00000000E+00
16  8-2.80459751E-03 0.00000000E+00-2.99805398E-03
17  1-0.00000000E+00-0.00000000E+00-4.00775335E-02-0.00000000E+00 3.74914357E-02
17  2-0.00000000E+00-1.35348158E-02-0.00000000E+00 1.26614495E-02-0.00000000E+00
17  3 7.59534674E-01-0.00000000E+00-7.10523899E-01-0.00000000E+00-0.00000000E+00
17  4-0.00000000E+00-2.51346222E-02-0.00000000E+00 2.35127510E-02-0.00000000E+00
17  5-0.00000000E+00 2.66097927E-02-0.00000000E+00-2.48927329E-02-0.00000000E+00
17  6-6.04834559E-02-0.00000000E+00 5.65806178E-02-0.00000000E+00-1.30480130E-01
17  7-0.00000000E+00 1.22060590E-01-0.00000000E+00-0.00000000E+00-0.00000000E+00
17  8-2.99805398E-03-0.00000000E+00 2.80459751E-03
18  1 1.65153263E-02-1.00550077E-01 0.00000000E+00 1.49300021E-02 0.00000000E+00
18  2 1.92174001E-01 0.00000000E+00-3.55932559E-01 0.00000000E+00 4.10326239E-01
18  3 0.00000000E+00 1.18946553E+00 0.00000000E+00 3.29783497E-02-6.59566995E-02
18  4 3.29783497E-02 0.00000000E+00 0.00000000E+00 0.00000000E+00-1.10682917E-02
18  5 6.35363770E-02 0.00000000E+00-2.23570602E-02 0.00000000E+00-6.45529565E-02
18  6 0.00000000E+00 6.79608950E-02 0.00000000E+00-4.12066446E-01 0.00000000E+00
18  7-6.92829426E-02 0.00000000E+00 1.59623630E-03-3.19247259E-03 1.59623630E-03
18  8 0.00000000E+00 0.00000000E+00 0.00000000E+00
19  1-2.42853689E-02-3.63279969E-02-0.00000000E+00-1.11744493E-01-0.00000000E+00
19  2-1.73843028E+00-0.00000000E+00 7.03555246E-01-0.00000000E+00 1.76524563E+00
19  3-0.00000000E+00-1.95372840E-01-0.00000000E+00 6.46107061E-03-1.29221412E-02
19  4 6.46107061E-03-0.00000000E+00-0.00000000E+00-0.00000000E+00-1.81926442E-03
19  5 1.92532043E-02-0.00000000E+00 2.28316249E-02-0.00000000E+00 2.06582531E-02
19  6-0.00000000E+00-6.58382101E-02-0.00000000E+00-2.88460444E-01-0.00000000E+00
19  7 1.45948262E-02-0.00000000E+00 4.57728071E-03-9.15456142E-03 4.57728071E-03
19  8-0.00000000E+00-0.00000000E+00-0.00000000E+00
20  1 0.00000000E+00 0.00000000E+00-4.46930509E-02 0.00000000E+00-2.06526371E-01
20  2 0.00000000E+00 2.91913843E-01 0.00000000E+00 1.34893245E+00 0.00000000E+00
20  3-1.86107304E-01 0.00000000E+00-8.60000947E-01 0.00000000E+00 0.00000000E+00
20  4 0.00000000E+00-2.19306838E-02 0.00000000E+00-1.01341582E-01 0.00000000E+00
20  5 0.00000000E+00 4.49589691E-03 0.00000000E+00 2.07755174E-02 0.00000000E+00
20  6-1.13100430E-02 0.00000000E+00-5.22636526E-02 0.00000000E+00-2.07281500E-02
20  7 0.00000000E+00-9.57846790E-02 0.00000000E+00 0.00000000E+00 0.00000000E+00
20  8-5.20700958E-03 0.00000000E+00-2.40615658E-02
21  1-0.00000000E+00-0.00000000E+00-2.06526371E-01-0.00000000E+00 4.46930509E-02
21  2-0.00000000E+00 1.34893245E+00-0.00000000E+00-2.91913843E-01-0.00000000E+00
21  3-8.60000947E-01-0.00000000E+00 1.86107304E-01-0.00000000E+00-0.00000000E+00
21  4-0.00000000E+00-1.01341582E-01-0.00000000E+00 2.19306838E-02-0.00000000E+00
21  5-0.00000000E+00 2.07755174E-02-0.00000000E+00-4.49589691E-03-0.00000000E+00
21  6-5.22636526E-02-0.00000000E+00 1.13100430E-02-0.00000000E+00-9.57846790E-02
21  7-0.00000000E+00 2.07281500E-02-0.00000000E+00-0.00000000E+00-0.00000000E+00
21  8-2.40615658E-02-0.00000000E+00 5.20700958E-03
22  1 1.74956510E-02 3.47727678E-02-0.00000000E+00-1.46284793E-01-0.00000000E+00
22  2 1.41637382E+00-0.00000000E+00 1.52811517E+00-0.00000000E+00-8.14638944E-01
22  3-0.00000000E+00-7.46547984E-01-0.00000000E+00 9.89090479E-02-1.97818096E-01
22  4 9.89090479E-02-0.00000000E+00-0.00000000E+00-0.00000000E+00-8.13000717E-03
22  5 5.01338849E-02-0.00000000E+00-7.41697109E-02-0.00000000E+00-3.97535200E-02
22  6-0.00000000E+00 1.74541728E-01-0.00000000E+00-5.04521205E-01-0.00000000E+00
22  7 6.17879163E-01-0.00000000E+00-1.13709501E-02 2.27419001E-02-1.13709501E-02
22  8-0.00000000E+00-0.00000000E+00-0.00000000E+00
23  1-0.00000000E+00-0.00000000E+00-0.00000000E+00-0.00000000E+00-0.00000000E+00
23  2-0.00000000E+00-0.00000000E+00-0.00000000E+00-0.00000000E+00-0.00000000E+00
23  3-0.00000000E+00-0.00000000E+00-0.00000000E+00 8.65048949E-01-0.00000000E+00
23  4-8.65048949E-01-0.00000000E+00 1.03568147E-02-0.00000000E+00-0.00000000E+00
23  5-0.00000000E+00-0.00000000E+00-0.00000000E+00-0.00000000E+00-0.00000000E+00
23  6-0.00000000E+00-0.00000000E+00-0.00000000E+00-0.00000000E+00-0.00000000E+00
23  7-0.00000000E+00-0.00000000E+00 2.46574545E-02-0.00000000E+00-2.46574545E-02
23  8-0.00000000E+00 2.95211750E-04-0.00000000E+00
24  1 0.00000000E+00 0.00000000E+00 0.00000000E+00 0.00000000E+00 0.00000000E+00
24  2 0.00000000E+00 0.00000000E+00 0.00000000E+00 0.00000000E+00 0.00000000E+00
24  3 0.00000000E+00 0.00000000E+00 0.00000000E+00-8.96926461E-03 0.00000000E+00
24  4 8.96926461E-03 0.00000000E+00 9.98872487E-01 0.00000000E+00 0.00000000E+00
24  5 0.00000000E+00 0.00000000E+00 0.00000000E+00 0.00000000E+00 0.00000000E+00
24  6 0.00000000E+00 0.00000000E+00 0.00000000E+00 0.00000000E+00 0.00000000E+00
24  7 0.00000000E+00 0.00000000E+00-2.55660874E-04 0.00000000E+00 2.55660874E-04
24  8 0.00000000E+00 2.84719760E-02 0.00000000E+00
25  1 0.00000000E+00 0.00000000E+00-1.21648413E-02 0.00000000E+00-2.06776422E-02
25  2 0.00000000E+00 9.00444482E-02 0.00000000E+00 1.53056405E-01 0.00000000E+00
25  3-9.12129811E-03 0.00000000E+00-1.55042668E-02 0.00000000E+00 0.00000000E+00
25  4 0.00000000E+00 5.13264071E-01 0.00000000E+00 8.72439717E-01 0.00000000E+00
25  5 0.00000000E+00 3.52705440E-02 0.00000000E+00 5.99524197E-02 0.00000000E+00
25  6-1.05099792E-01 0.00000000E+00-1.78647283E-01 0.00000000E+00-8.26110727E-02
25  7 0.00000000E+00-1.40421244E-01 0.00000000E+00 0.00000000E+00 0.00000000E+00
25  8-5.25764348E-02 0.00000000E+00-8.93687523E-02
26  1 0.00000000E+00 0.00000000E+00-2.06776422E-02 0.00000000E+00 1.21648413E-02
26  2 0.00000000E+00 1.53056405E-01 0.00000000E+00-9.00444482E-02 0.00000000E+00
26  3-1.55042668E-02 0.00000000E+00 9.12129811E-03 0.00000000E+00 0.00000000E+00
26  4 0.00000000E+00 8.72439717E-01 0.00000000E+00-5.13264071E-01 0.00000000E+00
26  5 0.00000000E+00 5.99524197E-02 0.00000000E+00-3.52705440E-02 0.00000000E+00
26  6-1.78647283E-01 0.00000000E+00 1.05099792E-01 0.00000000E+00-1.40421244E-01
26  7 0.00000000E+00 8.26110727E-02 0.00000000E+00 0.00000000E+00 0.00000000E+00
26  8-8.93687523E-02 0.00000000E+00 5.25764348E-02
27  1 5.08918594E-03 1.01651888E-01-0.00000000E+00-4.54638619E-02-0.00000000E+00
27  2 1.26196777E+00-0.00000000E+00 1.40287512E+00-0.00000000E+00-4.33151690E-01
27  3-0.00000000E+00-4.14315011E-01-0.00000000E+00-6.06979100E-01 1.21395820E+00
27  4-6.06979100E-01-0.00000000E+00-0.00000000E+00-0.00000000E+00-3.67645254E-02
27  5 1.36536323E-01-0.00000000E+00 3.01753385E-02-0.00000000E+00-5.22428781E-01
27  6-0.00000000E+00-1.82193548E-01-0.00000000E+00-6.60157364E-01-0.00000000E+00
27  7 1.40536187E+00-0.00000000E+00-6.00118887E-02 1.20023777E-01-6.00118887E-02
27  8-0.00000000E+00-0.00000000E+00-0.00000000E+00
28  1 0.00000000E+00 0.00000000E+00 7.38566444E-05 0.00000000E+00 2.10473632E-04
28  2 0.00000000E+00-5.41046513E-02 0.00000000E+00-1.54185274E-01 0.00000000E+00
28  3-4.26623462E-02 0.00000000E+00-1.21577451E-01 0.00000000E+00 0.00000000E+00
28  4 0.00000000E+00-8.87191829E-02 0.00000000E+00-2.52828383E-01 0.00000000E+00
28  5 0.00000000E+00 1.01002984E-01 0.00000000E+00 2.87834270E-01 0.00000000E+00
28  6-3.96193097E-01 0.00000000E+00-1.12905527E+00 0.00000000E+00 4.54253264E-01
28  7 0.00000000E+00 1.29451281E+00 0.00000000E+00 0.00000000E+00 0.00000000E+00
28  8 2.84167004E-02 0.00000000E+00 8.09807784E-02
29  1-0.00000000E+00-0.00000000E+00 2.10473632E-04-0.00000000E+00-7.38566444E-05
29  2-0.00000000E+00-1.54185274E-01-0.00000000E+00 5.41046513E-02-0.00000000E+00
29  3-1.21577451E-01-0.00000000E+00 4.26623462E-02-0.00000000E+00-0.00000000E+00
29  4-0.00000000E+00-2.52828383E-01-0.00000000E+00 8.87191829E-02-0.00000000E+00
29  5-0.00000000E+00 2.87834270E-01-0.00000000E+00-1.01002984E-01-0.00000000E+00
29  6-1.12905527E+00-0.00000000E+00 3.96193097E-01-0.00000000E+00 1.29451281E+00
29  7-0.00000000E+00-4.54253264E-01-0.00000000E+00-0.00000000E+00-0.00000000E+00
29  8 8.09807784E-02-0.00000000E+00-2.84167004E-02
30  1-8.73078758E-03 3.56435495E-02-0.00000000E+00 5.01626373E-02-0.00000000E+00
30  2-3.68777627E-01-0.00000000E+00-6.89156874E-01-0.00000000E+00-2.47036994E-01
30  3-0.00000000E+00-1.68325687E-01-0.00000000E+00 3.75634072E-01-7.51268144E-01
30  4 3.75634072E-01-0.00000000E+00-0.00000000E+00-0.00000000E+00-4.98311014E-02
30  5 3.70023967E-02-0.00000000E+00 2.22087891E-01-0.00000000E+00-1.21583055E+00
30  6-0.00000000E+00-8.33995119E-01-0.00000000E+00 2.11512696E+00-0.00000000E+00
30  7 2.37718883E-01-0.00000000E+00 5.77416479E-02-1.15483296E-01 5.77416479E-02
30  8-0.00000000E+00-0.00000000E+00-0.00000000E+00
31  1 6.72507032E-03-1.84299332E-01 0.00000000E+00-6.66043564E-02 0.00000000E+00
31  2-1.27325198E+00 0.00000000E+00-1.22369228E+00 0.00000000E+00 1.88957339E-01
31  3 0.00000000E+00 1.20743782E-01 0.00000000E+00 1.82884654E-01-3.65769309E-01
31  4 1.82884654E-01 0.00000000E+00 0.00000000E+00 0.00000000E+00-6.00172889E-02
31  5 4.24890182E-02 0.00000000E+00-2.19371745E-01 0.00000000E+00-1.47651421E+00
31  6 0.00000000E+00 9.23074785E-01 0.00000000E+00 2.52622072E+00 0.00000000E+00
31  7-1.82617804E+00 0.00000000E+00 1.23844128E-01-2.47688255E-01 1.23844128E-01
31  8 0.00000000E+00 0.00000000E+00 0.00000000E+00
32  1-0.00000000E+00-0.00000000E+00-0.00000000E+00-0.00000000E+00-0.00000000E+00
32  2-0.00000000E+00-0.00000000E+00-0.00000000E+00-0.00000000E+00-0.00000000E+00
32  3-0.00000000E+00-0.00000000E+00-0.00000000E+00-4.38289890E-02-0.00000000E+00
32  4 4.38289890E-02-0.00000000E+00-1.16986282E-02-0.00000000E+00-0.00000000E+00
32  5-0.00000000E+00-0.00000000E+00-0.00000000E+00-0.00000000E+00-0.00000000E+00
32  6-0.00000000E+00-0.00000000E+00-0.00000000E+00-0.00000000E+00-0.00000000E+00
32  7-0.00000000E+00-0.00000000E+00 8.43666768E-01-0.00000000E+00-8.43666768E-01
32  8-0.00000000E+00 2.25187576E-01-0.00000000E+00
33  1 0.00000000E+00 0.00000000E+00 0.00000000E+00 0.00000000E+00 0.00000000E+00
33  2 0.00000000E+00 0.00000000E+00 0.00000000E+00 0.00000000E+00 0.00000000E+00
33  3 0.00000000E+00 0.00000000E+00 0.00000000E+00 1.01313092E-02 0.00000000E+00
33  4-1.01313092E-02 0.00000000E+00-5.06093572E-02 0.00000000E+00 0.00000000E+00
33  5 0.00000000E+00 0.00000000E+00 0.00000000E+00 0.00000000E+00 0.00000000E+00
33  6 0.00000000E+00 0.00000000E+00 0.00000000E+00 0.00000000E+00 0.00000000E+00
33  7 0.00000000E+00 0.00000000E+00-1.95018162E-01 0.00000000E+00 1.95018162E-01
33  8 0.00000000E+00 9.74182472E-01 0.00000000E+00
34  1 0.00000000E+00 0.00000000E+00-1.79668967E-02 0.00000000E+00 3.23783647E-03
34  2 0.00000000E+00 1.57363390E-01 0.00000000E+00-2.83586494E-02 0.00000000E+00
34  3-3.49083239E-02 0.00000000E+00 6.29087181E-03 0.00000000E+00 0.00000000E+00
34  4 0.00000000E+00 2.60804382E-01 0.00000000E+00-4.69998772E-02 0.00000000E+00
34  5 0.00000000E+00-2.60540267E-02 0.00000000E+00 4.69522824E-03 0.00000000E+00
34  6 1.13632962E-01 0.00000000E+00-2.04779359E-02 0.00000000E+00-2.13653359E-01
34  7 0.00000000E+00 3.85027340E-02 0.00000000E+00 0.00000000E+00 0.00000000E+00
34  8 9.84564471E-01 0.00000000E+00-1.77429570E-01
35  1-0.00000000E+00-0.00000000E+00-3.23783647E-03-0.00000000E+00-1.79668967E-02
35  2-0.00000000E+00 2.83586494E-02-0.00000000E+00 1.57363390E-01-0.00000000E+00
35  3-6.29087181E-03-0.00000000E+00-3.49083239E-02-0.00000000E+00-0.00000000E+00
35  4-0.00000000E+00 4.69998772E-02-0.00000000E+00 2.60804382E-01-0.00000000E+00
35  5-0.00000000E+00-4.69522824E-03-0.00000000E+00-2.60540267E-02-0.00000000E+00
35  6 2.04779359E-02-0.00000000E+00 1.13632962E-01-0.00000000E+00-3.85027340E-02
35  7-0.00000000E+00-2.13653359E-01-0.00000000E+00-0.00000000E+00-0.00000000E+00
35  8 1.77429570E-01-0.00000000E+00 9.84564471E-01
36  1-2.61370012E-03-1.16328504E-01 0.00000000E+00-2.88878309E-03 0.00000000E+00
36  2-1.30483277E+00 0.00000000E+00-1.36568140E+00 0.00000000E+00 3.19557373E-01
36  3 0.00000000E+00 2.63655340E-01 0.00000000E+00 3.98550910E-01-7.97101821E-01
36  4 3.98550910E-01 0.00000000E+00 0.00000000E+00 0.00000000E+00-2.44550379E-02
36  5-2.46717199E-02 0.00000000E+00-4.55792530E-02 0.00000000E+00-7.45058551E-01
36  6 0.00000000E+00 2.40678417E-01 0.00000000E+00 1.90016772E+00 0.00000000E+00
36  7-1.28931719E+00 0.00000000E+00-5.00573566E-01 1.00114713E+00-5.00573566E-01
36  8 0.00000000E+00 0.00000000E+00 0.00000000E+00
 $END   
