 $contrl nprint=7 $end
 $contrl PLTORB=.t. MOLPLT=.t. $end
 $pdc ptsel=chelpg constr=charge $end
 $elpot iepot=1 where=pdc $end
 $guess guess=moread norb=14 $end
 $CONTRL SCFTYP=RHF RUNTYP=energy MAXIT=30 MULT=1 ISPHER=1 $END
 $SYSTEM mwords=100 $END
 $BASIS GBASIS=sto ngauss=3 $END
 $SCF DIRSCF=.TRUE. $END
 $STATPT OPTTOL=0.0001 NSTEP=20 $END
 $DATA 
Title
C1
 NA         11.0   0.0000000000  -1.4993243524   0.0000000000
 CL         17.0   0.0000000000   0.8916843524   0.0000000000
 $END
--- CLOSED SHELL ORBITALS --- GENERATED AT 20:30:32 29-SEP-2025    
Title                                                                           
E(RHF)=     -614.4399424292, E(NUC)=   41.3867776429,    8 ITERS
 $VEC   
 1  1 1.20185747E-05-5.06025863E-05 0.00000000E+00-7.94981862E-05 0.00000000E+00
 1  2 3.07152498E-04 0.00000000E+00 4.34351025E-04 0.00000000E+00 9.94479221E-01
 1  3 1.58147212E-02 0.00000000E+00-7.94941598E-05 0.00000000E+00-1.90728854E-03
 1  4 0.00000000E+00 1.82400021E-04 0.00000000E+00
 2  1 9.93992788E-01 2.09967616E-02-0.00000000E+00-5.07248870E-05-0.00000000E+00
 2  2-3.24147975E-03-0.00000000E+00-3.72196635E-04-0.00000000E+00 2.52138658E-05
 2  3-5.34261000E-05-0.00000000E+00 7.38110087E-05-0.00000000E+00 7.42138588E-04
 2  4-0.00000000E+00-4.50925017E-04-0.00000000E+00
 3  1-2.36291096E-04 9.07456029E-04-0.00000000E+00 1.43174376E-03-0.00000000E+00
 3  2-6.39304603E-03-0.00000000E+00-8.89017224E-03-0.00000000E+00-3.76781973E-01
 3  3 1.05255607E+00-0.00000000E+00-5.58453251E-03-0.00000000E+00 4.75191078E-02
 3  4-0.00000000E+00-4.24263957E-03-0.00000000E+00
 4  1 1.75747438E-04-5.96347489E-04-0.00000000E+00-1.13198743E-03-0.00000000E+00
 4  2 6.77217260E-03-0.00000000E+00 9.10665328E-03-0.00000000E+00-2.66146905E-03
 4  3 7.51583342E-03-0.00000000E+00 9.88171102E-01-0.00000000E+00-5.08356904E-03
 4  4-0.00000000E+00 4.60794774E-02-0.00000000E+00
 5  1-0.00000000E+00-0.00000000E+00 4.84482397E-04-0.00000000E+00-2.86991273E-04
 5  2-0.00000000E+00-2.59533205E-03-0.00000000E+00 1.53738846E-03-0.00000000E+00
 5  3-0.00000000E+00 8.51019445E-01-0.00000000E+00-5.04115640E-01-0.00000000E+00
 5  4 3.59605759E-02-0.00000000E+00-2.13018502E-02
 6  1 0.00000000E+00 0.00000000E+00 2.86991273E-04 0.00000000E+00 4.84482397E-04
 6  2 0.00000000E+00-1.53738846E-03 0.00000000E+00-2.59533205E-03 0.00000000E+00
 6  3 0.00000000E+00 5.04115640E-01 0.00000000E+00 8.51019445E-01 0.00000000E+00
 6  4 2.13018502E-02 0.00000000E+00 3.59605759E-02
 7  1-3.05009413E-01 1.02389687E+00-0.00000000E+00-1.60711238E-02-0.00000000E+00
 7  2 6.12968524E-02-0.00000000E+00-1.64575751E-04-0.00000000E+00-1.65891133E-04
 7  3 4.88059268E-05-0.00000000E+00-1.26431815E-04-0.00000000E+00-8.05116814E-03
 7  4-0.00000000E+00 2.82167310E-03-0.00000000E+00
 8  1-4.91447637E-03 1.68742289E-02-0.00000000E+00 9.42512970E-01-0.00000000E+00
 8  2 3.02694386E-03-0.00000000E+00 1.76623997E-01-0.00000000E+00 1.25998685E-03
 8  3-6.55106647E-03-0.00000000E+00 2.44951779E-03-0.00000000E+00-1.68231983E-02
 8  4-0.00000000E+00 3.28097451E-03-0.00000000E+00
 9  1 0.00000000E+00 0.00000000E+00-4.89957218E-01 0.00000000E+00 8.10650218E-01
 9  2 0.00000000E+00-8.40648453E-02 0.00000000E+00 1.39088032E-01 0.00000000E+00
 9  3 0.00000000E+00-5.62079397E-04 0.00000000E+00 9.29978719E-04 0.00000000E+00
 9  4 3.63701645E-03 0.00000000E+00-6.01756249E-03
10  1 0.00000000E+00 0.00000000E+00 8.10650218E-01 0.00000000E+00 4.89957218E-01
10  2 0.00000000E+00 1.39088032E-01 0.00000000E+00 8.40648453E-02 0.00000000E+00
10  3 0.00000000E+00 9.29978719E-04 0.00000000E+00 5.62079397E-04 0.00000000E+00
10  4-6.01756249E-03 0.00000000E+00-3.63701645E-03
11  1 8.37644892E-03-3.27331604E-02 0.00000000E+00-6.29106122E-02 0.00000000E+00
11  2 4.25483897E-02 0.00000000E+00 1.00615352E-02 0.00000000E+00 9.15165971E-02
11  3-3.01027845E-01 0.00000000E+00 9.71069174E-03 0.00000000E+00 1.01240598E+00
11  4 0.00000000E+00-3.01925077E-02 0.00000000E+00
12  1-3.38323730E-02 1.33262275E-01 0.00000000E+00 1.06284643E-01 0.00000000E+00
12  2-3.56088464E-01 0.00000000E+00-1.52539696E-01 0.00000000E+00 1.11942813E-02
12  3-3.19621535E-02 0.00000000E+00-2.48388606E-01 0.00000000E+00 1.90095016E-01
12  4 0.00000000E+00 8.59674534E-01 0.00000000E+00
13  1 0.00000000E+00 0.00000000E+00 2.49150355E-02 0.00000000E+00-5.53746540E-02
13  2 0.00000000E+00-4.80070438E-02 0.00000000E+00 1.06697558E-01 0.00000000E+00
13  3 0.00000000E+00 1.16321677E-01 0.00000000E+00-2.58529537E-01 0.00000000E+00
13  4-4.14253620E-01 0.00000000E+00 9.20695092E-01
14  1 0.00000000E+00 0.00000000E+00-5.53746540E-02 0.00000000E+00-2.49150355E-02
14  2 0.00000000E+00 1.06697558E-01 0.00000000E+00 4.80070438E-02 0.00000000E+00
14  3 0.00000000E+00-2.58529537E-01 0.00000000E+00-1.16321677E-01 0.00000000E+00
14  4 9.20695092E-01 0.00000000E+00 4.14253620E-01
15  1 7.00487992E-02-2.72328132E-01-0.00000000E+00 1.88778212E-01-0.00000000E+00
15  2 9.19214004E-01-0.00000000E+00-3.90432307E-01-0.00000000E+00-6.13074894E-03
15  3 1.80183967E-02-0.00000000E+00-8.81543597E-02-0.00000000E+00-9.59254506E-02
15  4-0.00000000E+00 3.23929466E-01-0.00000000E+00
16  1-0.00000000E+00-0.00000000E+00-3.08065668E-01-0.00000000E+00 2.66196113E-01
16  2-0.00000000E+00 7.71372750E-01-0.00000000E+00-6.66534604E-01-0.00000000E+00
16  3-0.00000000E+00 4.47317893E-02-0.00000000E+00-3.86522410E-02-0.00000000E+00
16  4-1.75712382E-01-0.00000000E+00 1.51831113E-01
17  1 0.00000000E+00 0.00000000E+00-2.66196113E-01 0.00000000E+00-3.08065668E-01
17  2 0.00000000E+00 6.66534604E-01 0.00000000E+00 7.71372750E-01 0.00000000E+00
17  3 0.00000000E+00 3.86522410E-02 0.00000000E+00 4.47317893E-02 0.00000000E+00
17  4-1.51831113E-01 0.00000000E+00-1.75712382E-01
18  1 2.96975034E-02-1.15054581E-01-0.00000000E+00-3.71611412E-01-0.00000000E+00
18  2 4.68394152E-01-0.00000000E+00 1.07491464E+00-0.00000000E+00-2.38115504E-02
18  3 5.99832828E-02-0.00000000E+00-1.46346103E-01-0.00000000E+00-5.01408800E-01
18  4-0.00000000E+00 6.12269506E-01-0.00000000E+00
 $END   
